#  HZ   S   DB   R     50.00 
! Rohde & Schwarz ZVA24 4Ports - Version 4.11 - 1145.1110k26 SN: 100599
! Date: 2025-09-02 10:05:00
! Measurements: S11 S21 S12 S22 
! 
 1.200000000000000E11   -3.157582407838129E1   4.122454860943853E1  -1.022529227751466E1   5.733804450589236E1  -1.023918077203298E1   2.970936290593595E1  -2.674492306222599E1   1.531619964484959E2  
 1.200122249388753E11   -2.939797020541912E1   3.205025284013111E1  -1.021068611084416E1   3.269552584544210E1  -1.022795605604133E1   4.636401086198630  -2.925690739280928E1   1.426261892431070E2  
 1.200244498777506E11   -2.876800329520079E1   2.065802903185163E1  -1.020976172018847E1   8.070623830642100  -1.021865207436881E1  -2.022187502745557E1  -3.345777865618008E1   1.434641625334434E2  
 1.200366748166259E11   -2.893458270821944E1   1.014875813357461E1  -1.020071332596939E1  -1.645824056296862E1  -1.022062691081181E1  -4.502401743688584E1  -3.626300564084945E1   1.780308558976939E2  
 1.200488997555012E11   -3.005897872685764E1   4.277037141025986  -1.019875640407024E1  -4.084653543368421E1  -1.020310929514214E1  -7.034158248483085E1  -3.241103560155808E1  -1.586217498659764E2  
 1.200611246943765E11   -3.089905502597393E1   7.184822941688418  -1.019990487501537E1  -6.536863973322373E1  -1.021813873631209E1  -9.531082174922791E1  -2.918541324034178E1  -1.634608607479867E2  
 1.200733496332518E11   -3.055290802099774E1   1.489861856161110E1  -1.018157341820239E1  -9.006157914041839E1  -1.021083174528496E1  -1.201785573830142E2  -2.743454692098737E1  -1.753627257074392E2  
 1.200855745721271E11   -2.860043865872895E1   1.723550696623617E1  -1.017673627859697E1  -1.144132132658291E2  -1.019359039443679E1  -1.451324124287468E2  -2.691340298967650E1   1.706795934357581E2  
 1.200977995110024E11   -2.694871124272748E1   9.345782508942545  -1.017755421963911E1  -1.392456583876631E2  -1.018677718090811E1  -1.699235214743784E2  -2.730402943597074E1   1.580737134561477E2  
 1.201100244498778E11   -2.593385948044543E1  -2.722656488484039  -1.015763898385183E1  -1.640802099307740E2  -1.017761357470304E1   1.652770678143653E2  -2.856687950822901E1   1.494289586355432E2  
 1.201222493887531E11   -2.573449694217165E1  -1.709989506702228E1  -1.015350374477966E1   1.712862574874162E2  -1.017553261568001E1   1.402676721714986E2  -2.993644653935650E1   1.478554378588690E2  
 1.201344743276284E11   -2.632618285796570E1  -3.143821957120430E1  -1.014901568504778E1   1.463168622636219E2  -1.016764868770252E1   1.156659633526505E2  -3.064310836447726E1   1.533700147472998E2  
 1.201466992665037E11   -2.765430289816185E1  -4.268578822231101E1  -1.014628007852071E1   1.221680979734524E2  -1.016082352216922E1   9.055899910886532E1  -3.002624298935207E1   1.569517521196304E2  
 1.201589242053790E11   -2.967220362934005E1  -4.862113616535432E1  -1.013716455869318E1   9.745132028037563E1  -1.015293257169312E1   6.575017906299009E1  -2.903062517541586E1   1.530169375664360E2  
 1.201711491442543E11   -3.170015172262361E1  -4.503102290370096E1  -1.011907493405476E1   7.297762409954561E1  -1.013460846922234E1   4.086630476259351E1  -2.858731491345881E1   1.451645270834419E2  
 1.201833740831296E11   -3.188159793638948E1  -3.462455761351256E1  -1.012112001248141E1   4.813904082181941E1  -1.013138792132196E1   1.599160266175789E1  -2.910964615633334E1   1.353093881118802E2  
 1.201955990220049E11   -3.059054876921897E1  -3.273374649157703E1  -1.010000858932260E1   2.344306829617407E1  -1.012246785772701E1  -9.023696491592222  -3.027313276758899E1   1.284541882586249E2  
 1.202078239608802E11   -2.969049873328983E1  -4.131565992944719E1  -1.011261148888135E1  -1.319334030708247  -1.012132666998506E1  -3.381954075680057E1  -3.209114730480792E1   1.317423944714523E2  
 1.202200488997555E11   -2.964086363852971E1  -5.392645973911932E1  -1.011210405268967E1  -2.610510333718530E1  -1.012088717200231E1  -5.863318293067415E1  -3.240206837728089E1   1.463831290178427E2  
 1.202322738386308E11   -3.086582455406909E1  -6.796051262937833E1  -1.011414890560283E1  -5.065422121985296E1  -1.012991936652006E1  -8.326112342559314E1  -3.039915444264906E1   1.547191191295506E2  
 1.202444987775061E11   -3.348946713090019E1  -8.002988502764771E1  -1.010641730540694E1  -7.543080006283967E1  -1.012189804366872E1  -1.078373382470865E2  -2.809985883060548E1   1.500354989791149E2  
 1.202567237163814E11   -3.940449419138339E1  -8.069808593132986E1  -1.010719571324958E1  -1.002953072561066E2  -1.010667568617285E1  -1.328751342984392E2  -2.661676827068011E1   1.398046979516562E2  
 1.202689486552567E11   -4.235194681292272E1  -1.257384095365696E1  -1.008808660600360E1  -1.249178888932548E2  -1.009929000284645E1  -1.575742858350870E2  -2.582387554131298E1   1.267343864198592E2  
 1.202811735941320E11   -3.479016440879650E1   2.434068653283560  -1.007790956220937E1  -1.496568231372473E2  -1.009233003428785E1   1.777730143786644E2  -2.576942853969361E1   1.134864263950990E2  
 1.202933985330073E11   -3.111155323560675E1  -1.263866684462702E1  -1.007466313415818E1  -1.747009537518262E2  -1.007712024135355E1   1.530416591203953E2  -2.652468047074451E1   1.022902919982091E2  
 1.203056234718826E11   -2.948381302566720E1  -2.881120739460819E1  -1.006360067507246E1   1.604553975360348E2  -1.007690736515593E1   1.283317245000507E2  -2.771525000460813E1   9.509421689527024E1  
 1.203178484107580E11   -2.897176109431121E1  -4.674211340665607E1  -1.005228794401142E1   1.358499952416457E2  -1.007249365717134E1   1.037760133807433E2  -2.876262486724028E1   9.456448885297623E1  
 1.203300733496333E11   -2.982575729663542E1  -6.366523173645158E1  -1.004544224327622E1   1.105224444825725E2  -1.005651471224882E1   7.921423686379769E1  -2.872173834729940E1   9.940513658488716E1  
 1.203422982885086E11   -3.181094495843873E1  -7.986766566346987E1  -1.002896496883051E1   8.578699542044161E1  -1.004885536249297E1   5.456936100967963E1  -2.773242227135490E1   9.865928039064346E1  
 1.203545232273839E11   -3.621830745506927E1  -8.966322772787638E1  -1.001509870197655E1   6.078046713707618E1  -1.004694653225750E1   3.020558154700986E1  -2.663327955768020E1   9.216863335772717E1  
 1.203667481662592E11   -4.194173105608908E1  -6.088766982163318E1  -1.001905834217161E1   3.607677316902456E1  -1.004599639853301E1   5.251031039748138  -2.599616414580397E1   8.107928175606020E1  
 1.203789731051345E11   -3.793721615994352E1  -1.619998915014112E1  -1.001597338317654E1   1.112113095740339E1  -1.004082615533939E1  -1.943570031422166E1  -2.587728514833723E1   6.728696218705133E1  
 1.203911980440098E11   -3.372742551958636E1  -1.812343037926632E1  -1.001011871780281E1  -1.358286212747259E1  -1.003593795949803E1  -4.420432660421579E1  -2.661219859853174E1   5.291605556083614E1  
 1.204034229828851E11   -3.154345222447600E1  -2.876611690382127E1  -1.001103182575837E1  -3.877655167035329E1  -1.002715565672181E1  -6.864131228456213E1  -2.828586051803190E1   4.038843356846093E1  
 1.204156479217604E11   -3.082249774729080E1  -3.976666307651510E1  -9.996440767794939  -6.377309457236031E1  -1.002116192307918E1  -9.307006434430844E1  -3.106121980163020E1   3.320121036575388E1  
 1.204278728606357E11   -3.085016588667454E1  -5.051252911325087E1  -9.984970750882296  -8.847658309575915E1  -1.000416096622794E1  -1.178082064345334E2  -3.501243012609729E1   4.067409581842014E1  
 1.204400977995110E11   -3.175957408854779E1  -5.343128166899300E1  -9.954464202677114  -1.135238742019630E2  -9.984314036873311  -1.421845366330725E2  -3.646818925624395E1   7.210239779628721E1  
 1.204523227383863E11   -3.188574587111020E1  -4.772240133851805E1  -9.954381756004285  -1.385258068674029E2  -9.986027448213035  -1.671632567899051E2  -3.324222955469294E1   9.045505636470776E1  
 1.204645476772616E11   -3.004721859107195E1  -4.407256867503416E1  -9.961929749509217  -1.635008188173902E2  -9.980107883306667   1.683141013865089E2  -3.025030229467232E1   8.900052196946389E1  
 1.204767726161369E11   -2.800844693410463E1  -4.951034937297119E1  -9.965997540104869   1.717714571699825E2  -9.992820939102643   1.435899122620403E2  -2.855976095362897E1   8.149020387012543E1  
 1.204889975550122E11   -2.639979176445098E1  -6.105048310351248E1  -9.983409396548618   1.468072148033357E2  -1.000694784581802E1   1.188474689306045E2  -2.762763963612542E1   7.399517627728891E1  
 1.205012224938875E11   -2.529849872601128E1  -7.549207910252262E1  -9.978769115828987   1.218262895561224E2  -1.001539918857468E1   9.444436720113232E1  -2.693610730659639E1   6.719066760234618E1  
 1.205134474327628E11   -2.489879355591985E1  -9.188800314768183E1  -9.991869135615991   9.714206975775960E1  -1.000702022407134E1   6.991833905534443E1  -2.626151602913856E1   6.056986562558526E1  
 1.205256723716381E11   -2.485727882951892E1  -1.098935138240488E2  -9.959298680095960   7.213920004870745E1  -9.985283315442466   4.551922354965139E1  -2.563095793778257E1   5.231723058396644E1  
 1.205378973105134E11   -2.556518276920866E1  -1.274019281678265E2  -9.944829419934619   4.744622955808614E1  -9.958308544960845   2.084795937654616E1  -2.535228252829662E1   4.343873475815702E1  
 1.205501222493888E11   -2.694009340309469E1  -1.410837370247760E2  -9.922280719404528   2.227280371142294E1  -9.935027018202982  -3.753658020666575  -2.530106042598097E1   3.330159913304375E1  
 1.205623471882641E11   -2.861311060947892E1  -1.505502107224751E2  -9.923971596937557  -2.708794552959351  -9.929438660868128  -2.871622813678741E1  -2.580966482106256E1   2.278978097027023E1  
 1.205745721271394E11   -2.977108839785658E1  -1.533238434447933E2  -9.918405099656891  -2.732748626445125E1  -9.935304540125619  -5.338015314443523E1  -2.718650579834155E1   1.301897529053993E1  
 1.205867970660147E11   -2.973164631963686E1  -1.532795006859917E2  -9.936009116400232  -5.245496665418597E1  -9.942817446464188  -7.811635388073806E1  -2.959511679417851E1   9.503271325896968  
 1.205990220048900E11   -2.861579902537212E1  -1.588583811371445E2  -9.951583140262734  -7.726845849376754E1  -9.956229435498978  -1.030323658519009E2  -3.217735679682448E1   2.457321818398689E1  
 1.206112469437653E11   -2.729350769765408E1  -1.718614345820255E2  -9.952207116899785  -1.020771624176234E2  -9.955958798503003  -1.274530322258020E2  -3.083639697302347E1   5.005821487156123E1  
 1.206234718826406E11   -2.641739102591283E1   1.704483528601286E2  -9.951267283084048  -1.267528214514997E2  -9.945281739867193  -1.524975016534518E2  -2.725463345875821E1   5.531466493810218E1  
 1.206356968215159E11   -2.612499190061827E1   1.492439837593235E2  -9.958162910002095  -1.517449209299050E2  -9.964373854600712  -1.770881773391556E2  -2.457485650222355E1   4.677547369421798E1  
 1.206479217603912E11   -2.638171250802096E1   1.273070676311556E2  -9.974444084059552  -1.762799971449454E2  -9.970137086758328   1.580690941770031E2  -2.278490107575833E1   3.291173821719873E1  
 1.206601466992665E11   -2.723362977034790E1   1.062975440168174E2  -9.988082400468072   1.591427849287755E2  -9.975030316993356   1.332777699396672E2  -2.196905999109020E1   1.685729100425252E1  
 1.206723716381418E11   -2.851266731601726E1   8.734880710324252E1  -9.995136354360875   1.345573332821720E2  -9.978471633001874   1.087734563196558E2  -2.203014088437749E1   1.028438589759949  
 1.206845965770171E11   -3.071867000208386E1   7.173942313059651E1  -9.990635885551534   1.100609002320326E2  -9.981801988614690   8.384757879464711E1  -2.292942135218491E1  -1.367756917592942E1  
 1.206968215158924E11   -3.366522872232648E1   6.576913251212649E1  -9.965501462092270   8.546653054432420E1  -9.959842711686022   5.911078705688368E1  -2.457749640519624E1  -2.423548017509006E1  
 1.207090464547677E11   -3.570609707122204E1   8.293404985880876E1  -9.932507607824050   6.081286414454591E1  -9.931111406674132   3.452765719043200E1  -2.680653267177934E1  -2.656100096132657E1  
 1.207212713936430E11   -3.326835064962210E1   9.601147210859247E1  -9.909042365170425   3.591781949115030E1  -9.897142906524994   9.557258823000135  -2.839314498788631E1  -1.728272842439199E1  
 1.207334963325183E11   -3.047360214330351E1   9.071182645251906E1  -9.909282860930521   1.122242824304006E1  -9.900622775647626  -1.551599374726292E1  -2.728158722956979E1  -6.175328064810020  
 1.207457212713937E11   -2.860993047396284E1   7.920003426372747E1  -9.926398516041191  -1.340713577459956E1  -9.922371029885541  -4.060279081349237E1  -2.531340168105874E1  -9.524972095734777  
 1.207579462102690E11   -2.753809870128862E1   6.521260836421395E1  -9.952525785390543  -3.812547256132783E1  -9.954555437106153  -6.552713834590529E1  -2.409162541140599E1  -2.175669603707161E1  
 1.207701711491443E11   -2.690141457342746E1   5.212046870620100E1  -9.961723784567170  -6.259606779669308E1  -9.971408791093195  -9.023970763221783E1  -2.387584508999536E1  -3.858087618520692E1  
 1.207823960880196E11   -2.684717675054442E1   4.083812950166892E1  -9.963858172387596  -8.673318953033359E1  -9.966783300494248  -1.147351174420731E2  -2.470224829364510E1  -5.695437685092070E1  
 1.207946210268949E11   -2.689711092910561E1   3.214576275018351E1  -9.934372494637071  -1.114126166376382E2  -9.934637606990618  -1.396866893355910E2  -2.673165317557081E1  -7.785073436170988E1  
 1.208068459657702E11   -2.677843311643068E1   2.644051653134504E1  -9.889617467861211  -1.358217736716535E2  -9.904692986085737  -1.644381531796107E2  -3.066098035908651E1  -1.033639061720344E2  
 1.208190709046455E11   -2.616864954589797E1   2.004943287572277E1  -9.882589637326772  -1.603404056286398E2  -9.892657369486390   1.703980228851508E2  -3.969268776105963E1  -1.556150027237829E2  
 1.208312958435208E11   -2.547992942514233E1   1.007366341731642E1  -9.882124381700812   1.749838608967019E2  -9.885654140620424   1.453042642268069E2  -3.573537941260636E1   7.843268399216237E1  
 1.208435207823961E11   -2.503534507987581E1  -2.167819231958620  -9.883080923875394   1.502505367150683E2  -9.904901834756604   1.204766030296229E2  -2.956919907320049E1   4.215724268236117E1  
 1.208557457212714E11   -2.505171772192854E1  -1.647827665222571E1  -9.891987585445682   1.259211860184324E2  -9.901241909486412   9.558849167223801E1  -2.703636077923299E1   2.014925220321774E1  
 1.208679706601467E11   -2.569630143148157E1  -3.171218263894780E1  -9.896941715090415   1.014783412491617E2  -9.897727126950496   7.080685328051122E1  -2.624434889671701E1   1.609472966295686  
 1.208801955990220E11   -2.714406176046700E1  -4.743631915315257E1  -9.886358051542798   7.731663065958442E1  -9.883584044826183   4.602848569855460E1  -2.648769826294699E1  -1.188758606139605E1  
 1.208924205378973E11   -3.004770948689139E1  -6.119334757068802E1  -9.844765405906182   5.275754458196639E1  -9.835638451954900   2.137383336705151E1  -2.737379404291962E1  -1.991886812793591E1  
 1.209046454767726E11   -3.524089604643037E1  -6.260597117876613E1  -9.803389933530841   2.812774041730359E1  -9.806766146844129  -4.058286970890833  -2.864569091637590E1  -1.887492174081863E1  
 1.209168704156479E11   -3.896864509683696E1  -1.897913286413378E1  -9.796468243822744   3.351672867363919  -9.781181532142723  -2.890579769681850E1  -2.854933164160733E1  -1.142702295011650E1  
 1.209290953545232E11   -3.437058493121513E1   4.953613908939582  -9.793758459577642  -2.144047668830146E1  -9.790593408610906  -5.393120284707243E1  -2.703080499320076E1  -8.427921827499828  
 1.209413202933985E11   -3.118471854879825E1  -1.252199802415901  -9.800314798794044  -4.608286495116835E1  -9.801660154236625  -7.898373934052168E1  -2.560055846420649E1  -1.538475047187581E1  
 1.209535452322738E11   -2.990129749300146E1  -1.340176483220960E1  -9.817214614190393  -7.077703077492147E1  -9.806005203635483  -1.039365355401900E2  -2.510547239352982E1  -2.694417960087681E1  
 1.209657701711491E11   -3.018792275719771E1  -2.549656079678703E1  -9.823571348315216  -9.524217173377075E1  -9.820307704214901  -1.285819618562786E2  -2.560676343181333E1  -3.768995616833238E1  
 1.209779951100244E11   -3.210473354490910E1  -3.317404415367364E1  -9.809280673807603  -1.197432272209002E2  -9.805704164665643  -1.532718501551114E2  -2.704128393085320E1  -4.548769903579385E1  
 1.209902200488998E11   -3.565486969619331E1  -2.278682230352765E1  -9.774420708817990  -1.443071009345693E2  -9.771724583948471  -1.784193063827715E2  -2.921975663119781E1  -4.437744102585666E1  
 1.210024449877751E11   -3.432344871460484E1   1.384610496993337E1  -9.759704125039209  -1.692946252843552E2  -9.753925734719870   1.567862115953622E2  -3.044566398748148E1  -2.676121879633265E1  
 1.210146699266504E11   -2.978029929475679E1   1.977223537339601E1  -9.763617719161852   1.658606570583578E2  -9.763866086016101   1.317048447082123E2  -2.815450733760514E1  -1.257236328170353E1  
 1.210268948655257E11   -2.684453694083771E1   1.063855430514322E1  -9.802548698038621   1.409609039717177E2  -9.793931112803374   1.070017301277448E2  -2.532213995142086E1  -1.523084330220960E1  
 1.210391198044010E11   -2.499961173155604E1  -1.744513319339987  -9.824003823647898   1.163171748661126E2  -9.821791820496561   8.220113490088234E1  -2.358537999564690E1  -2.696616837969778E1  
 1.210513447432763E11   -2.403154022740950E1  -1.559576507238472E1  -9.843834706767767   9.167946057859577E1  -9.838829353049395   5.762370993165396E1  -2.284108176213620E1  -4.151310829648709E1  
 1.210635696821516E11   -2.385072353427789E1  -2.866486428099031E1  -9.845346503628361   6.712388496044254E1  -9.838621104318643   3.316303759729762E1  -2.299995905156238E1  -5.698713802765823E1  
 1.210757946210269E11   -2.434309055597025E1  -3.935685729572309E1  -9.798943197872937   4.286120509597679E1  -9.803585559612561   8.611826273799256  -2.403226326814517E1  -7.309125669157848E1  
 1.210880195599022E11   -2.518324809958944E1  -4.445380720499293E1  -9.755712635783487   1.789284979290928E1  -9.744469795315824  -1.596887524170746E1  -2.644705343308721E1  -8.791752132813829E1  
 1.211002444987775E11   -2.567711432587175E1  -4.520678497818747E1  -9.737821169498526  -7.226773057973064  -9.727166345402507  -4.089906370425162E1  -3.132248681053020E1  -9.491797289781647E1  
 1.211124694376528E11   -2.533467450938785E1  -4.484768232185513E1  -9.741343433014112  -3.204593261515441E1  -9.746079938757065  -6.588284979211593E1  -3.713943091472071E1  -5.259785112917098E1  
 1.211246943765281E11   -2.445421112839050E1  -4.804034485638602E1  -9.756663278745577  -5.713589987100787E1  -9.758419448786729  -9.029613060957045E1  -3.159205319775371E1  -1.767752418675275E1  
 1.211369193154034E11   -2.370559091448110E1  -5.573433183959359E1  -9.798978194057311  -8.198632531126850E1  -9.796041776240463  -1.150253689689481E2  -2.769845659015645E1  -2.293519971409275E1  
 1.211491442542787E11   -2.340131292073579E1  -6.642709408071350E1  -9.807418247301170  -1.066713698251730E2  -9.807446701764455  -1.390791664292765E2  -2.599543653846127E1  -3.452024587799352E1  
 1.211613691931540E11   -2.377033865116821E1  -7.928273353007276E1  -9.790267422005201  -1.312345808125965E2  -9.774850062672206  -1.633507601220019E2  -2.532974361304958E1  -4.718365745430477E1  
 1.211735941320293E11   -2.513166364849360E1  -9.011861492164724E1  -9.736183785738527  -1.560677766978138E2  -9.730538768748527   1.720748459115835E2  -2.580828126013207E1  -5.988163248851101E1  
 1.211858190709047E11   -2.739681670100980E1  -9.594833529895539E1  -9.689518324684602   1.787071032016266E2  -9.676632199920775   1.476570554641888E2  -2.745914634149071E1  -6.830170634651881E1  
 1.211980440097800E11   -2.962208368842612E1  -8.824864826552853E1  -9.665769979249818   1.537899210305581E2  -9.657690448437805   1.225479515813219E2  -2.944994478104818E1  -6.402080374936823E1  
 1.212102689486553E11   -2.966828927529373E1  -7.260482104221492E1  -9.670747269780236   1.287483402404984E2  -9.668859306803865   9.797998870975688E1  -2.958206500887865E1  -5.104895534226021E1  
 1.212224938875306E11   -2.783757502580355E1  -6.734227079154334E1  -9.682124943376225   1.036554781526231E2  -9.680775346421241   7.329444651844973E1  -2.806047616433074E1  -4.641853020293461E1  
 1.212347188264059E11   -2.628495453289960E1  -7.333079258431627E1  -9.714366314039740   7.870246149078641E1  -9.695375387533611   4.871205744517893E1  -2.690695230977953E1  -5.123407741788082E1  
 1.212469437652812E11   -2.553927688039076E1  -8.494285500245981E1  -9.710760464354847   5.431034973231925E1  -9.712062431369695   2.433368045535519E1  -2.650962650513723E1  -5.907491299165140E1  
 1.212591687041565E11   -2.611984480985677E1  -9.761004950403557E1  -9.682177518799692   2.954079786018813E1  -9.673575816557738   5.255361050009587E-2  -2.704576103594704E1  -6.903801891444708E1  
 1.212713936430318E11   -2.773265560459326E1  -1.066787787046542E2  -9.635106569242055   4.490633616058016  -9.625991268363640  -2.474749833161197E1  -2.871451896751784E1  -7.713590215647653E1  
 1.212836185819071E11   -3.016273006307974E1  -1.062913430158222E2  -9.611670093850798  -2.063997194507583E1  -9.601729871492752  -4.958564822391479E1  -3.193369256985418E1  -7.273459809231777E1  
 1.212958435207824E11   -3.124464171746683E1  -9.148740083061563E1  -9.601677529276344  -4.574838665387119E1  -9.591861565375517  -7.412464245627395E1  -3.329290917423433E1  -4.691440580082163E1  
 1.213080684596577E11   -2.951175922474008E1  -8.068386259575100E1  -9.617131773262289  -7.070245592375180E1  -9.607364868235090  -9.905032936250103E1  -3.028210321982158E1  -2.838763954672343E1  
 1.213202933985330E11   -2.750630838712417E1  -8.507289455504819E1  -9.642568115277978  -9.575698216822576E1  -9.643028493126105  -1.237240341976076E2  -2.776015033080430E1  -2.969280853066890E1  
 1.213325183374083E11   -2.638996975036469E1  -9.818367871038625E1  -9.667507224546235  -1.205120243555893E2  -9.656726438970805  -1.478239822768092E2  -2.625482547701022E1  -3.575153253290411E1  
 1.213447432762836E11   -2.634495692264144E1  -1.163772972958449E2  -9.664923892815692  -1.450622208680563E2  -9.648837323218782  -1.726097281214136E2  -2.555412625784508E1  -4.254108446556366E1  
 1.213569682151589E11   -2.780154530320357E1  -1.379179500769887E2  -9.631337507987153  -1.698387562732445E2  -9.612124731536571   1.627394997606918E2  -2.538069521604983E1  -4.781265710344611E1  
 1.213691931540342E11   -3.153774768535483E1  -1.626720316443543E2  -9.598415865200201   1.652896478885154E2  -9.578621762830082   1.379912333072251E2  -2.534912255267681E1  -4.901394010962362E1  
 1.213814180929095E11   -4.054150726337185E1   1.512718011882203E2  -9.600777555698242   1.401760043272663E2  -9.576713003369125   1.130572545610385E2  -2.485078819581720E1  -4.812171041406764E1  
 1.213936430317848E11   -3.698800905577873E1   1.079545971153041E1  -9.618721586326377   1.150069445859891E2  -9.596158749473350   8.850861719306543E1  -2.366759955885068E1  -4.984556636192864E1  
 1.214058679706601E11   -2.991856366666728E1  -2.374883630243552E1  -9.657558380976365   9.014412511306651E1  -9.638013870401275   6.390383115013743E1  -2.266509619032222E1  -5.694206755597065E1  
 1.214180929095355E11   -2.675362609420685E1  -4.682236782474331E1  -9.686983113104319   6.556352445949733E1  -9.666387009101447   3.911494365162568E1  -2.210247682407872E1  -6.660405859129581E1  
 1.214303178484108E11   -2.536555819153118E1  -6.782086874765244E1  -9.685895904941205   4.138480733489267E1  -9.674193067870373   1.470087640479148E1  -2.212336120435709E1  -7.728715439193196E1  
 1.214425427872861E11   -2.545487475263155E1  -8.711986803733025E1  -9.651077762996151   1.686259506224016E1  -9.638534131269291  -9.719315291693381  -2.270240607070398E1  -8.808999394783174E1  
 1.214547677261614E11   -2.671354626679634E1  -1.014070919197732E2  -9.599657288545368  -8.045192419687888  -9.577208363596299  -3.439514761891157E1  -2.425970493527690E1  -9.724192299192525E1  
 1.214669926650367E11   -2.923752125554771E1  -1.067021067782768E2  -9.568644396402773  -3.281610605728022E1  -9.544530374427783  -5.937406601072119E1  -2.664923315227256E1  -9.843647099200611E1  
 1.214792176039120E11   -3.127507657769460E1  -9.156596775998419E1  -9.553102640237905  -5.786270569515406E1  -9.540386581316128  -8.439518367145368E1  -2.841487116913955E1  -8.316689947362673E1  
 1.214914425427873E11   -2.942540468986392E1  -7.359701052976072E1  -9.577574652977539  -8.246109264952240E1  -9.559645603050146  -1.097008149693075E2  -2.709458728894015E1  -6.731805281979871E1  
 1.215036674816626E11   -2.645067077683359E1  -7.423515362356227E1  -9.614772907455883  -1.072311776548339E2  -9.597442721943679  -1.344183140358268E2  -2.483434969136688E1  -6.688113876577387E1  
 1.215158924205379E11   -2.451959505970014E1  -8.637841464287783E1  -9.647199519886668  -1.315769086086691E2  -9.631012084399977  -1.592344726917947E2  -2.346727749482000E1  -7.412290494675253E1  
 1.215281173594132E11   -2.379981312985170E1  -1.024627010109736E2  -9.641343185295410  -1.558084952989291E2  -9.619120377833445   1.762795142447799E2  -2.287451197059473E1  -8.371254672072358E1  
 1.215403422982885E11   -2.419677438439935E1  -1.188502293089346E2  -9.600801669550684   1.797541726715746E2  -9.586425484462552   1.516156403700855E2  -2.299638420914791E1  -9.420334110637100E1  
 1.215525672371638E11   -2.584687544749097E1  -1.327074997483352E2  -9.562045763793384   1.551413036430460E2  -9.540920822737228   1.269565157714299E2  -2.410311995838946E1  -1.015790829472429E2  
 1.215647921760391E11   -2.904710709173246E1  -1.384040025374412E2  -9.531077794976737   1.304682595541039E2  -9.523113012500566   1.016457173544412E2  -2.554451132619654E1  -1.007486908604501E2  
 1.215770171149144E11   -3.235625089256897E1  -1.186104773298198E2  -9.548249638356628   1.056781984455556E2  -9.535097858892414   7.654748622206870E1  -2.599576979681500E1  -9.121175310227731E1  
 1.215892420537897E11   -2.986055128300529E1  -9.069292506533333E1  -9.576751541540789   8.082306652234006E1  -9.555321925024522   5.149617009561080E1  -2.459167236510794E1  -8.593857237860303E1  
 1.216014669926650E11   -2.611483001695100E1  -9.228844318465768E1  -9.617133219301511   5.630620012638462E1  -9.609219287567798   2.674064126406208E1  -2.302296080698296E1  -8.988294453869476E1  
 1.216136919315403E11   -2.393640346385578E1  -1.053180095129201E2  -9.639460432455801   3.240843298427492E1  -9.616733495355589   2.205114771858679  -2.197763427161274E1  -9.843796943572436E1  
 1.216259168704157E11   -2.300421582649349E1  -1.221074897228707E2  -9.614746968902008   8.127567125494883  -9.606626899946324  -2.270988610642558E1  -2.143869235903838E1  -1.095611256528289E2  
 1.216381418092910E11   -2.303969620612413E1  -1.398422421590658E2  -9.577526547465977  -1.648436245124939E1  -9.559998415130028  -4.710485207572801E1  -2.156862042239937E1  -1.224235328161535E2  
 1.216503667481663E11   -2.409188602787400E1  -1.567975732925680E2  -9.527475884673390  -4.091939517702406E1  -9.504266314420356  -7.226589080595163E1  -2.233179192087483E1  -1.344856197733778E2  
 1.216625916870416E11   -2.634330554880490E1  -1.721365076297186E2  -9.485150213341612  -6.544606678524679E1  -9.471385618990359  -9.727330368521838E1  -2.385174699374817E1  -1.430253425479925E2  
 1.216748166259169E11   -3.006651091475595E1  -1.796842434551787E2  -9.465586754165985  -9.036918912672905E1  -9.461775457506938  -1.221603362979312E2  -2.540066158804949E1  -1.460105522369562E2  
 1.216870415647922E11   -3.488573350325697E1  -1.639848650263745E2  -9.475098256025934  -1.150304991445719E2  -9.460622156639486  -1.473756919894019E2  -2.636463125298323E1  -1.445318127784293E2  
 1.216992665036675E11   -3.415288032691512E1  -1.273421805376967E2  -9.484804607129865  -1.397605853294274E2  -9.489070813219174  -1.722170466002098E2  -2.655487617053785E1  -1.460152191483026E2  
 1.217114914425428E11   -3.111995561525132E1  -1.221938215179872E2  -9.467600386257528  -1.645357748321859E2  -9.477149466988633   1.633074389259176E2  -2.642261636505556E1  -1.517140159713625E2  
 1.217237163814181E11   -2.974623537852940E1  -1.294049186476400E2  -9.452167354982832   1.710435157712617E2  -9.457761676125111   1.382376056579653E2  -2.695662664610220E1  -1.641016228400398E2  
 1.217359413202934E11   -2.992629522055168E1  -1.352492995011981E2  -9.436753254327334   1.463223464819092E2  -9.427904450497907   1.131673611708289E2  -2.856640784020815E1   1.775731488547374E2  
 1.217481662591687E11   -3.070558939635185E1  -1.347775233617234E2  -9.417701204930722   1.213263128256891E2  -9.422240789649075   8.829760991981951E1  -3.230421251322389E1   1.508030884162593E2  
 1.217603911980440E11   -3.094875095762595E1  -1.240391748924814E2  -9.424184873572578   9.645167794037126E1  -9.435726009000332   6.318279255004678E1  -4.063582950152574E1   8.885947697514457E1  
 1.217726161369193E11   -2.889171912902448E1  -1.151258773737731E2  -9.447681867009038   7.162038546867204E1  -9.461035628155361   3.849215604158201E1  -3.550967441481463E1  -2.213643663152317E1  
 1.217848410757946E11   -2.641751144371698E1  -1.186290821263132E2  -9.497814229869249   4.703861714417371E1  -9.508709556617827   1.365340952614439E1  -2.970396314341274E1  -5.506949280836160E1  
 1.217970660146699E11   -2.452097013275803E1  -1.302380018527825E2  -9.515864721597023   2.242990496881306E1  -9.516351647785500  -1.092497762895157E1  -2.676953706532432E1  -7.931445651590354E1  
 1.218092909535452E11   -2.364170119849308E1  -1.451909465043002E2  -9.507028153980851  -1.795235412925078  -9.500055246838601  -3.552232004105213E1  -2.539594115433405E1  -1.018012784200936E2  
 1.218215158924205E11   -2.364271224923069E1  -1.615311715273500E2  -9.474081926146633  -2.648150849460445E1  -9.475204533721835  -6.005065662216964E1  -2.527237760511021E1  -1.232842806243839E2  
 1.218337408312958E11   -2.449150764319674E1  -1.769385735811465E2  -9.446198000516915  -5.096891080097255E1  -9.443605184717814  -8.507623977589149E1  -2.639611529540037E1  -1.430233003975646E2  
 1.218459657701711E11   -2.624054479129681E1   1.689839354491957E2  -9.413761880054715  -7.590101980523602E1  -9.418567443667897  -1.097157827887948E2  -2.883866088258451E1  -1.588899328313219E2  
 1.218581907090465E11   -2.926805328099955E1   1.614150298970452E2  -9.418639031209418  -1.009358719062758E2  -9.417343075427215  -1.346606395083310E2  -3.285004957488488E1  -1.638869920712519E2  
 1.218704156479218E11   -3.244506221182528E1   1.716069741995039E2  -9.428857947073865  -1.259314860387666E2  -9.435642998800130  -1.594085835924054E2  -3.646953833985344E1  -1.420263851973073E2  
 1.218826405867971E11   -3.238389841861775E1  -1.680255936402834E2  -9.447440469980576  -1.502864035673533E2  -9.445299175892242   1.757345471988431E2  -3.482051791249954E1  -1.195231855538694E2  
 1.218948655256724E11   -3.055831362797957E1  -1.643428371128059E2  -9.450234825180724  -1.752316657779464E2  -9.443630874176465   1.512560318627800E2  -3.247563789448878E1  -1.211600081434532E2  
 1.219070904645477E11   -2.963635677946782E1  -1.735120822302545E2  -9.423275139331489   1.601422847707347E2  -9.417638550350535   1.266240230751543E2  -3.188248972123618E1  -1.367246493200446E2  
 1.219193154034230E11   -3.052615240214982E1   1.754982477151684E2  -9.411308284234844   1.352293043766021E2  -9.401845721584678   1.019577313644739E2  -3.391895746978973E1  -1.568795517273000E2  
 1.219315403422983E11   -3.313980966038648E1   1.683546642676978E2  -9.397844363733238   1.104524137430289E2  -9.383298022376277   7.707527813850230E1  -4.171625946910121E1   1.781976310552554E2  
 1.219437652811736E11   -3.843764282433412E1  -1.722364227114079E2  -9.401277618857208   8.549422071192389E1  -9.394525427713150   5.209774468959174E1  -4.123257205962482E1  -8.590074093165564  
 1.219559902200489E11   -3.479130261084104E1  -1.211329505647463E2  -9.420678154851693   6.036743796292735E1  -9.422838612851363   2.762757587537456E1  -3.171307173307345E1  -3.745692449425876E1  
 1.219682151589242E11   -2.925784444800182E1  -1.224917168289402E2  -9.463449441663158   3.559413020354594E1  -9.462579988816749   2.920406605014084  -2.748199949021795E1  -6.063173054141372E1  
 1.219804400977995E11   -2.611250102485613E1  -1.371368737253738E2  -9.481056521108542   1.110272515767854E1  -9.481164020680952  -2.135805142224776E1  -2.529140957498534E1  -8.181522364849877E1  
 1.219926650366748E11   -2.450199188114405E1  -1.549058670088424E2  -9.482588824234714  -1.339403280769296E1  -9.480553820399885  -4.589723964473494E1  -2.426857644348636E1  -1.033379362026419E2  
 1.220048899755501E11   -2.398435884634856E1  -1.728464282481542E2  -9.461643973557402  -3.810324413564293E1  -9.462772469864655  -7.026408521574753E1  -2.432484110321770E1  -1.255118712920569E2  
 1.220171149144254E11   -2.450112008601940E1   1.692114170148246E2  -9.434460147712974  -6.263851421758383E1  -9.420808358034101  -9.488076405176031E1  -2.560086375378526E1  -1.458439675052687E2  
 1.220293398533007E11   -2.608336647130361E1   1.540384540239158E2  -9.393983096381399  -8.776851375991326E1  -9.380508520416225  -1.194937874526815E2  -2.843659728365519E1  -1.621901610685233E2  
 1.220415647921760E11   -2.920515455496901E1   1.449621388942711E2  -9.363817033069527  -1.126788208933014E2  -9.365931439792718  -1.441479555587169E2  -3.354531815965490E1  -1.660234046890062E2  
 1.220537897310514E11   -3.312757722140134E1   1.577879203389821E2  -9.372170619154971  -1.376458893061616E2  -9.373740958510954  -1.689710567936097E2  -3.640197698814149E1  -1.212878381879207E2  
 1.220660146699267E11   -3.196053177790312E1  -1.710453799927686E2  -9.384454793041645  -1.625124701316603E2  -9.380925628733380   1.662504084033121E2  -3.104303438464807E1  -1.031550046286028E2  
 1.220782396088020E11   -2.831821518299420E1  -1.684989019647415E2  -9.393868712245114   1.728243558150835E2  -9.396266719441655   1.417378080970532E2  -2.777941818174498E1  -1.148108329656412E2  
 1.220904645476773E11   -2.614305757357881E1  -1.796591759275246E2  -9.391048094415705   1.479825853158846E2  -9.393395280648633   1.172152462782682E2  -2.620589148349549E1  -1.343761723117603E2  
 1.221026894865526E11   -2.525523713517856E1   1.650794864020153E2  -9.376924214550735   1.234463798927381E2  -9.370917997626776   9.256863179564695E1  -2.606206514191921E1  -1.558809553657450E2  
 1.221149144254279E11   -2.547638503406659E1   1.496369357561940E2  -9.348227156856126   9.844824066850869E1  -9.350580740648427   6.819450853796106E1  -2.724217156134981E1  -1.791348535030039E2  
 1.221271393643032E11   -2.670948921785083E1   1.356479824424103E2  -9.319453737482835   7.364222566428127E1  -9.325379064094641   4.341046209787582E1  -3.007267940089909E1   1.583723076238552E2  
 1.221393643031785E11   -2.912393744982149E1   1.272429939230692E2  -9.311115382240882   4.883253261538214E1  -9.301512354281197   1.879008344077253E1  -3.593947955915886E1   1.360079354484972E2  
 1.221515892420538E11   -3.180926272483202E1   1.351857985882830E2  -9.304932195826869   2.398677807299637E1  -9.305487954554675  -6.074263801980924  -5.758297060729707E1   1.682549661989465E2  
 1.221638141809291E11   -3.206224871686937E1   1.537420462118162E2  -9.309920237345756  -9.049943712509628E-1  -9.310694077465135  -3.043482465604470E1  -3.793197745723071E1  -9.886995191824039E1  
 1.221760391198044E11   -2.991421612015982E1   1.595596953334887E2  -9.294224737975148  -2.574506584065891E1  -9.292598416686577  -5.536638439359840E1  -3.309929142708013E1  -1.229104128596820E2  
 1.221882640586797E11   -2.841266239329788E1   1.532866605969111E2  -9.283753556905495  -5.080959509044455E1  -9.288739680735024  -7.972399507721515E1  -3.202402849491448E1  -1.495414955840603E2  
 1.222004889975550E11   -2.794015110880374E1   1.424895219510583E2  -9.274462228195812  -7.562820930875351E1  -9.277194622666480  -1.045583168378999E2  -3.304629184401519E1  -1.789871423189242E2  
 1.222127139364303E11   -2.859646158834810E1   1.318092628796086E2  -9.256898182466278  -1.004423836372751E2  -9.266880351617784  -1.290415925348405E2  -3.656865859571204E1   1.396544717997520E2  
 1.222249388753056E11   -3.043088621469739E1   1.275925908075302E2  -9.253731844767467  -1.255371455422510E2  -9.263217905710150  -1.539730826800162E2  -4.064971150307909E1   5.521448910948501E1  
 1.222371638141809E11   -3.214487568607938E1   1.361876534932761E2  -9.267183016569994  -1.501284032433998E2  -9.278940267098014  -1.788138920630686E2  -3.515854270615945E1  -1.935417441497655E1  
 1.222493887530562E11   -3.135985824244062E1   1.516453092128944E2  -9.286563508553229  -1.749782440156964E2  -9.285268202963323   1.567502964810443E2  -3.076670815875168E1  -5.660424604060408E1  
 1.222616136919315E11   -2.895204107410041E1   1.543856746187681E2  -9.288268017006924   1.603125858446945E2  -9.284325241399426   1.319328735224721E2  -2.853680365881315E1  -8.506240853268712E1  
 1.222738386308068E11   -2.714143416171337E1   1.467105105052615E2  -9.281997057202004   1.355075488325866E2  -9.290140708814620   1.075054019098840E2  -2.768754613846365E1  -1.117905927593634E2  
 1.222860635696821E11   -2.620698437432314E1   1.342168230377334E2  -9.277276923374364   1.109050538815783E2  -9.273877091400417   8.284412120627644E1  -2.831244079502479E1  -1.358544711335729E2  
 1.222982885085575E11   -2.627952924204475E1   1.206356986460808E2  -9.259127995172513   8.615781585286779E1  -9.262611555001714   5.792044583756859E1  -3.064854513929336E1  -1.595984044313401E2  
 1.223105134474328E11   -2.741314456135711E1   1.076828781006233E2  -9.245566049075219   6.156153460520388E1  -9.249585633009554   3.311589749672491E1  -3.616306994950866E1  -1.781075879549132E2  
 1.223227383863081E11   -2.975470493954252E1   1.015368473561147E2  -9.239045798664908   3.654054133078916E1  -9.237101694420861   8.372005560834017  -4.703040937377484E1  -1.018455602258789E2  
 1.223349633251834E11   -3.263551801621589E1   1.104961099779313E2  -9.250984533588614   1.172132586968031E1  -9.248648775555621  -1.639658250279251E1  -3.436818234467101E1  -7.459593584423899E1  
 1.223471882640587E11   -3.211815100326103E1   1.356923626731623E2  -9.252554937872496  -1.298288138408328E1  -9.246490535449706  -4.132474654002391E1  -2.947092110144695E1  -9.429142419104056E1  
 1.223594132029340E11   -2.914318617142417E1   1.427838276973987E2  -9.268443746576418  -3.763506500903718E1  -9.263992753296343  -6.618042270668688E1  -2.709721252927182E1  -1.184438138118140E2  
 1.223716381418093E11   -2.655431972174172E1   1.354846310305026E2  -9.283398978327494  -6.239172681210985E1  -9.254320101976711  -9.075752820125558E1  -2.621833868705618E1  -1.432871650514157E2  
 1.223838630806846E11   -2.516594154847507E1   1.237220542787535E2  -9.270267274646534  -8.684411108285927E1  -9.271896100741214  -1.155066055003017E2  -2.661882757901396E1  -1.703300254235862E2  
 1.223960880195599E11   -2.465732651805423E1   1.097850745280826E2  -9.258509122061900  -1.114397875526311E2  -9.257303709762661  -1.401555436053984E2  -2.821050268149417E1   1.603041071459026E2  
 1.224083129584352E11   -2.501387330838206E1   9.744087753412718E1  -9.234100989757648  -1.362203170917200E2  -9.244324922905340  -1.650336196429850E2  -3.126961056252474E1   1.254469929258776E2  
 1.224205378973105E11   -2.589440074924336E1   8.805496458282266E1  -9.226512783955647  -1.609591147038917E2  -9.241341706824606   1.702318014354285E2  -3.536536243241954E1   7.424528496035494E1  
 1.224327628361858E11   -2.699374874530241E1   8.391003056536107E1  -9.213280885313909   1.745935826422335E2  -9.216270822570412   1.454876023979113E2  -3.619657198555010E1  -1.958597039900536  
 1.224449877750611E11   -2.780662410694873E1   8.360732649015969E1  -9.207065641280870   1.499602017641780E2  -9.203865359894945   1.204608118473147E2  -3.303994750598296E1  -5.660228795261454E1  
 1.224572127139364E11   -2.768959679513791E1   8.521704801141038E1  -9.203867880226950   1.253001514749915E2  -9.194444233234457   9.556887980057147E1  -3.126538525849590E1  -8.960353073632263E1  
 1.224694376528117E11   -2.717310402801602E1   8.203496704918722E1  -9.195875698408992   1.006966401726710E2  -9.191995825460200   7.079085453723748E1  -3.138061358048185E1  -1.159026381418721E2  
 1.224816625916870E11   -2.711674876470226E1   7.395046943002525E1  -9.191735899186707   7.603498462510413E1  -9.190499684349586   4.570564083399535E1  -3.334390085852068E1  -1.361180721363301E2  
 1.224938875305624E11   -2.778364087913985E1   6.417915547476036E1  -9.186301685267384   5.117114172974826E1  -9.188874667860301   2.099805029511807E1  -3.840971101504723E1  -1.321166899754651E2  
 1.225061124694377E11   -2.975837435365023E1   5.636855877408090E1  -9.191311815406271   2.665315642925298E1  -9.188488428315873  -4.034329650635814  -3.705789059469941E1  -8.113805388765738E1  
 1.225183374083130E11   -3.292704232780159E1   6.344657410755760E1  -9.209593956713443   1.812771088340037  -9.210718630392517  -2.886103563282889E1  -3.088046196123709E1  -7.895252523067734E1  
 1.225305623471883E11   -3.347439067249361E1   9.206042376424698E1  -9.215157762299404  -2.282621864052808E1  -9.219557022530088  -5.354675885311433E1  -2.698827831934237E1  -9.554250035395674E1  
 1.225427872860636E11   -2.980509411791404E1   1.074943309905676E2  -9.240294275486537  -4.759035989481060E1  -9.238566400886125  -7.849872679197330E1  -2.480722513667015E1  -1.165538033582915E2  
 1.225550122249389E11   -2.660297532238741E1   1.008417774306183E2  -9.255988971841646  -7.209807950127920E1  -9.247104761859838  -1.027834848510036E2  -2.373158636477103E1  -1.380548197655946E2  
 1.225672371638142E11   -2.459433413250756E1   8.759572165117623E1  -9.267538722209604  -9.635210724620822E1  -9.255238606651295  -1.276887542720760E2  -2.359075869851900E1  -1.607943561802080E2  
 1.225794621026895E11   -2.357140144907601E1   7.147835409302350E1  -9.269492382300767  -1.208817924022917E2  -9.256705436746941  -1.524522033386195E2  -2.435587733068557E1   1.776033242968073E2  
 1.225916870415648E11   -2.348266625167372E1   5.472322418856150E1  -9.249515349200680  -1.452806014634828E2  -9.242233214941225  -1.771001492936321E2  -2.596049709662936E1   1.583229312565804E2  
 1.226039119804401E11   -2.426635840138486E1   3.814406844239704E1  -9.218325126742702  -1.699454598728636E2  -9.222424389980221   1.580713018898723E2  -2.877985423557470E1   1.419466796206476E2  
 1.226161369193154E11   -2.602012926027784E1   2.434975875363331E1  -9.205641707987688   1.653349639855922E2  -9.181425827654373   1.333952329345997E2  -3.308897894765065E1   1.385165602193489E2  
 1.226283618581907E11   -2.912834032147391E1   1.467113194680762E1  -9.180533935950306   1.406078288545118E2  -9.175247846968217   1.082966046542443E2  -3.498371263869367E1   1.635725327874405E2  
 1.226405867970660E11   -3.316627502854620E1   2.340899647885616E1  -9.172193275248482   1.158904715049533E2  -9.171409762397092   8.340166560300487E1  -3.196183030383943E1   1.724320383184972E2  
 1.226528117359413E11   -3.405511158528765E1   5.801576917778462E1  -9.186692710134389   9.137813288990748E1  -9.174254421979157   5.862165172510915E1  -2.962968369214758E1   1.582136227925222E2  
 1.226650366748166E11   -3.052361858063041E1   7.020310581965812E1  -9.190540793961684   6.646627526176383E1  -9.188946480129237   3.402491196525100E1  -2.861368716271785E1   1.350449465656099E2  
 1.226772616136919E11   -2.809068186959502E1   6.501740672237538E1  -9.191874388145793   4.204021806280519E1  -9.195562858695670   9.210113740820205  -2.864210446775979E1   1.051039484828007E2  
 1.226894865525672E11   -2.686861123805086E1   5.607196301753545E1  -9.180616079773813   1.746526823400649E1  -9.198074437051048  -1.567728274293363E1  -2.938182624807764E1   7.045418249098267E1  
 1.227017114914425E11   -2.653413171636528E1   4.729175199870015E1  -9.163005191707896  -7.380233868096663  -9.172117328734878  -4.025247417241109E1  -3.046849541567122E1   2.876276741766620E1  
 1.227139364303178E11   -2.668739502889856E1   4.022341636563647E1  -9.148622463486392  -3.192500454202862E1  -9.161694467164399  -6.491234005259625E1  -3.072160309850217E1  -1.759270818069522E1  
 1.227261613691932E11   -2.686427730906431E1   3.689120820432385E1  -9.137217415471099  -5.670159509770673E1  -9.134595937515496  -8.967720110527816E1  -3.015974015615006E1  -6.280791410970810E1  
 1.227383863080685E11   -2.675673767852759E1   3.576468627559886E1  -9.123659741135240  -8.146144229021425E1  -9.132566627369359  -1.142742397647826E2  -2.965443782725131E1  -1.009693530726374E2  
 1.227506112469438E11   -2.617185618784218E1   3.256991674474401E1  -9.129017492368506  -1.061068600774344E2  -9.122922089658619  -1.391658879532851E2  -2.960904345435619E1  -1.353433915688760E2  
 1.227628361858191E11   -2.546024178609514E1   2.530591386548295E1  -9.129598392502178  -1.310455980288826E2  -9.131186658009222  -1.639974615333526E2  -3.066701966867996E1  -1.628463700891640E2  
 1.227750611246944E11   -2.536363928383027E1   1.565860439025780E1  -9.125818933947731  -1.556179302932797E2  -9.124036546068586   1.714428370895023E2  -3.349600732954921E1   1.731297350153435E2  
 1.227872860635697E11   -2.582586605553230E1   6.013070973097777  -9.110591515221481   1.793964087119274E2  -9.120771975704198   1.470703584647040E2  -3.904732215065144E1   1.632798661266670E2  
 1.227995110024450E11   -2.686194142192617E1  -2.304653737678889  -9.109017455213138   1.548008938111200E2  -9.099943286403471   1.223176979443133E2  -4.176352614980237E1  -1.349271828499456E2  
 1.228117359413203E11   -2.857465675240142E1  -6.286919767555077  -9.092614120537220   1.298034567353132E2  -9.099360055207137   9.743572205137906E1  -3.450179053139267E1  -1.230665353093829E2  
 1.228239608801956E11   -3.024435824989889E1  -8.488967388173475E-1  -9.088603255902271   1.049460957805616E2  -9.090847390414318   7.290181594890942E1  -3.043055852213974E1  -1.411113022340169E2  
 1.228361858190709E11   -3.009992266813297E1   1.109569041896266E1  -9.099090610834047   8.018466388648609E1  -9.100200516392180   4.822789314256158E1  -2.849675641468655E1  -1.628473456580196E2  
 1.228484107579462E11   -2.849056758140321E1   1.518125095081275E1  -9.094996090702020   5.526731151713970E1  -9.097594619867333   2.367224647959764E1  -2.791086603101674E1   1.737203333434354E2  
 1.228606356968215E11   -2.687297574523381E1   8.930100516549789  -9.104535732653652   3.041215745471355E1  -9.101155691429057  -8.778128883705483E-1  -2.859353824838971E1   1.512005643222267E2  
 1.228728606356968E11   -2.607076528217371E1  -1.774955671177636  -9.102555747604697   5.705348837827825  -9.094556861140072  -2.556377449621152E1  -3.074932519524569E1   1.309206972232358E2  
 1.228850855745721E11   -2.606187143678364E1  -1.473814263206934E1  -9.076690142186079  -1.884673540309912E1  -9.075138801767700  -5.018114486533688E1  -3.522537146360995E1   1.185393216627025E2  
 1.228973105134474E11   -2.699044004496882E1  -2.747584478427320E1  -9.050998477153351  -4.395396708752983E1  -9.070586732043967  -7.508247296430106E1  -4.188158108159173E1   1.484889022589812E2  
 1.229095354523227E11   -2.887845895951545E1  -3.759218451035235E1  -9.051962837105688  -6.888446875366950E1  -9.065688221489619  -9.964458791310517E1  -3.602761554043010E1  -1.667680484705674E2  
 1.229217603911980E11   -3.146256497801419E1  -3.849147806388855E1  -9.061710764048094  -9.382009122544380E1  -9.057857954429196  -1.241647789259747E2  -3.128419170917521E1  -1.772958934148224E2  
 1.229339853300734E11   -3.315534070864234E1  -2.430751794043290E1  -9.072969744415314  -1.189333368803327E2  -9.068161892039301  -1.488329955091662E2  -2.908478197687440E1   1.631195046773506E2  
 1.229462102689487E11   -3.223704735438901E1  -1.248002609912019E1  -9.074969120312865  -1.436476188895468E2  -9.076051564208257  -1.735464383103854E2  -2.858199829969840E1   1.425535232741962E2  
 1.229584352078240E11   -3.044971746727468E1  -1.566425558845305E1  -9.080849955928947  -1.683026511141803E2  -9.084566646362033   1.619472583658333E2  -2.954946268627805E1   1.223914849965251E2  
 1.229706601466993E11   -2.977384471060205E1  -2.639589392588067E1  -9.057549518781393   1.670001317962212E2  -9.079362319065536   1.374386437217877E2  -3.262044816337426E1   1.075906887378053E2  
 1.229828850855746E11   -3.038602048425482E1  -4.121800981649569E1  -9.043743386802722   1.419132498412276E2  -9.050252944466902   1.127892364993455E2  -3.874211525128727E1   1.175085705924190E2  
 1.229951100244499E11   -3.262268162898599E1  -5.911944665090842E1  -9.040423706422445   1.169220564166818E2  -9.042520050406091   8.818026875048153E1  -3.527437347371241E1   1.758451482148565E2  
 1.230073349633252E11   -3.877186374163485E1  -7.742968434313005E1  -9.064509001983430   9.207972361151244E1  -9.051895481879676   6.328506586815943E1  -2.912951982535101E1   1.729452007382796E2  
 1.230195599022005E11   -5.007279936214956E1   5.837169589047759E1  -9.086922279256637   6.735408797534018E1  -9.087810552949204   3.862222805967149E1  -2.569123894485444E1   1.540010566383783E2  
 1.230317848410758E11   -3.465847734708443E1   5.564259724220435E1  -9.110246720544073   4.255172274984751E1  -9.129143314991586   1.376459968900415E1  -2.377151260377585E1   1.331343774488733E2  
 1.230440097799511E11   -2.967976154980459E1   3.735781278347692E1  -9.145944906707221   1.819499735074541E1  -9.150604380900807  -1.046692703519339E1  -2.284432428340364E1   1.109285008123753E2  
 1.230562347188264E11   -2.718471222165582E1   1.735230869804729E1  -9.149398089201695  -6.614237204533085  -9.154125848119298  -3.478453081922715E1  -2.283349011199542E1   8.841105889119469E1  
 1.230684596577017E11   -2.580863075782798E1  -2.282948328171479  -9.115450154167476  -3.111502932568964E1  -9.122810288440034  -5.890865236637295E1  -2.375848793328727E1   6.680200285120405E1  
 1.230806845965770E11   -2.564761508102808E1  -2.275092050387255E1  -9.072887180619567  -5.596659581664619E1  -9.077526344271123  -8.364130856704949E1  -2.584135729124581E1   4.633035476491477E1  
 1.230929095354523E11   -2.642907126355222E1  -4.231368045604407E1  -9.045876488122218  -8.059227831728521E1  -9.046435575930637  -1.081746119855701E2  -2.935513970844878E1   3.216418217230606E1  
 1.231051344743276E11   -2.830388585393727E1  -5.933940812680496E1  -9.040555731780973  -1.054310185258449E2  -9.034408468927653  -1.332872644888556E2  -3.503376453739897E1   3.889682045563383E1  
 1.231173594132029E11   -3.171093164544338E1  -7.245734207429339E1  -9.036521689201694  -1.303365335983466E2  -9.041235647071131  -1.582935101146627E2  -3.457029010710010E1   8.034021660116686E1  
 1.231295843520783E11   -3.647890379857139E1  -7.004608110509291E1  -9.048319731841600  -1.549555562621635E2  -9.055927992275022   1.771683169509267E2  -3.033678235494430E1   8.088257245077671E1  
 1.231418092909536E11   -3.937316774406287E1  -3.347889120914245E1  -9.057479299873247  -1.795233757647889E2  -9.053400071624676   1.526490498778572E2  -2.823216125667886E1   6.268354766746135E1  
 1.231540342298289E11   -3.605197063124343E1  -1.507688790617669E1  -9.044856978322688   1.553520643767501E2  -9.049890748430745   1.280034251379084E2  -2.799805340605037E1   3.924441218445274E1  
 1.231662591687042E11   -3.391705892536763E1  -2.073895899631150E1  -9.018085531610295   1.308060029589349E2  -9.012263082676773   1.032778761629553E2  -2.952198214966276E1   1.149496330194605E1  
 1.231784841075795E11   -3.386000734662346E1  -3.277382399931832E1  -9.010094543002014   1.062441607592852E2  -9.005226488363890   7.855153255272761E1  -3.305309919815859E1  -2.507764474644292E1  
 1.231907090464548E11   -3.647837308710091E1  -4.223272371001198E1  -9.011763566504108   8.119003477237891E1  -9.008273490218764   5.377496781296966E1  -3.824435574590940E1  -1.055719533424834E2  
 1.232029339853301E11   -4.071686487920146E1  -2.406985432111333E1  -9.020827087794698   5.627696987461103E1  -9.025745745232497   2.915478909702667E1  -3.292802495425097E1   1.711283001049515E2  
 1.232151589242054E11   -3.815927302926906E1   2.189862701621388E1  -9.051105071298677   3.184715938935837E1  -9.042226342321794   4.264796615284779  -2.801444665118795E1   1.309473507262686E2  
 1.232273838630807E11   -3.326113934959773E1   2.368424742553158E1  -9.070241082439360   7.243466375690812  -9.055762988762032  -2.050994338174927E1  -2.562945101273429E1   1.010174521196247E2  
 1.232396088019560E11   -3.024672523131737E1   1.301050456081377E1  -9.053658134433954  -1.712897234952468E1  -9.063929354996784  -4.509830269470284E1  -2.470874116519987E1   7.441061137911193E1  
 1.232518337408313E11   -2.845127570698005E1  -2.003916227675084  -9.025931470002496  -4.173431126777923E1  -9.020650543506001  -6.945263556469698E1  -2.511126731907706E1   4.823031552742990E1  
 1.232640586797066E11   -2.806327653531812E1  -1.781061464400124E1  -8.997249499484097  -6.634217679181973E1  -8.997109142539644  -9.429397176445194E1  -2.706140768559665E1   2.193906547670271E1  
 1.232762836185819E11   -2.880251498839431E1  -3.179223288267103E1  -8.984951029871644  -9.083118622629243E1  -8.974160534381653  -1.194263901300157E2  -3.172208256534043E1  -5.609250899197866  
 1.232885085574572E11   -3.064427366352227E1  -3.850770783690716E1  -8.967450657634693  -1.157248624589146E2  -8.961011801078366  -1.439750653417662E2  -4.674531434729322E1  -7.066860754718000E1  
 1.233007334963325E11   -3.254111881910443E1  -3.079471962490613E1  -8.974064144130656  -1.408225551561216E2  -8.959245913260098  -1.687148494781435E2  -3.327951784591765E1   1.419943934439522E2  
 1.233129584352078E11   -3.173046440256537E1  -1.708276961985595E1  -8.986489842295553  -1.653675465251683E2  -8.977987255154227   1.661509269537324E2  -2.736697651409700E1   1.139506826718857E2  
 1.233251833740831E11   -2.942059617073613E1  -1.600784357361614E1  -9.001639098328020   1.701827111329411E2  -8.988258861707378   1.413539103698827E2  -2.481623897446123E1   8.999573112540274E1  
 1.233374083129584E11   -2.757542772985192E1  -2.556287517166275E1  -8.973434951380535   1.456372914853698E2  -8.963466980666272   1.169515745069464E2  -2.392993457748154E1   6.833914849787729E1  
 1.233496332518337E11   -2.664093760735698E1  -4.026093147322447E1  -8.951999208172609   1.213328537609208E2  -8.937408809670735   9.199958881194517E1  -2.438447499272052E1   4.901613873267555E1  
 1.233618581907091E11   -2.691055731238408E1  -5.677071873506684E1  -8.928861736376470   9.650306813300492E1  -8.932263333115673   6.710774804520025E1  -2.635464340560883E1   3.420785767956512E1  
 1.233740831295844E11   -2.860161947190905E1  -7.364376483614008E1  -8.923950546083585   7.175225089951513E1  -8.919511805441937   4.198284471603417E1  -3.018050309887902E1   3.300138066005692E1  
 1.233863080684597E11   -3.213038593570643E1  -8.461223747324910E1  -8.930159682054084   4.722090540857593E1  -8.916690614781828   1.697705437766572E1  -3.177137133345833E1   7.026958665945131E1  
 1.233985330073350E11   -3.758338950174031E1  -6.686728988537715E1  -8.954995751610323   2.216622249654905E1  -8.938932778303840  -7.438344502253875  -2.685702773543352E1   8.536485809827951E1  
 1.234107579462103E11   -3.489456810800657E1  -1.998759086755113E1  -8.985448139470508  -2.178148489211536  -8.970680441043259  -3.235188369165487E1  -2.326956263819150E1   7.561678104069654E1  
 1.234229828850856E11   -2.998362932934167E1  -2.204348749501549E1  -9.002771370471962  -2.660992648236057E1  -8.992395806388442  -5.691882772147206E1  -2.133122525771169E1   5.980390531849478E1  
 1.234352078239609E11   -2.707312308990131E1  -3.785076508681696E1  -8.980989177150608  -5.108946133884531E1  -8.968849044580411  -8.142119715242258E1  -2.052389489793761E1   4.380437055860224E1  
 1.234474327628362E11   -2.559636239296399E1  -5.936333269264247E1  -8.958493440234937  -7.593426355814529E1  -8.952967921414132  -1.063780228336932E2  -2.062966684971835E1   2.861153752691328E1  
 1.234596577017115E11   -2.537148623949154E1  -8.477009255744142E1  -8.934791608716466  -1.005482958610998E2  -8.923032940472513  -1.310047110612607E2  -2.151852203623270E1   1.648875108298159E1  
 1.234718826405868E11   -2.619979585270139E1  -1.122541347049447E2  -8.930500802739251  -1.252395730051897E2  -8.905082834571706  -1.560536732373150E2  -2.300900611315098E1   1.078811493159155E1  
 1.234841075794621E11   -2.786943378356525E1  -1.448138582812182E2  -8.933421049037049  -1.498644296063877E2  -8.902829028957674   1.791179287745161E2  -2.408272480686457E1   1.484840930247006E1  
 1.234963325183374E11   -3.015046784273659E1   1.752563677223840E2  -8.945415780828354  -1.743685730488832E2  -8.932156169751849   1.540123006114516E2  -2.339296383572040E1   2.025836732622596E1  
 1.235085574572127E11   -3.141425994739415E1   1.248951215013444E2  -8.970097725084544   1.608965791330430E2  -8.946506065626085   1.295772859959003E2  -2.194080901374061E1   1.661257398841947E1  
 1.235207823960880E11   -3.051400626756493E1   7.555668583653153E1  -8.965686132982597   1.363400502774038E2  -8.948052336856334   1.052537672704100E2  -2.098969243400542E1   5.551061558309194  
 1.235330073349633E11   -2.937562420258639E1   3.738924042203381E1  -8.949937383064844   1.114715362537481E2  -8.928933269437486   8.053834029766279E1  -2.097802133270052E1  -9.090426375661975  
 1.235452322738386E11   -2.902980478205431E1   8.936887253452980  -8.918728440601857   8.665790237438969E1  -8.909939137026743   5.579727563356509E1  -2.208128434579823E1  -2.571955236529855E1  
 1.235574572127139E11   -2.995987563319364E1  -8.913820642183641  -8.894028219632004   6.207386582489298E1  -8.895341223999324   3.106927899855909E1  -2.493480480536250E1  -4.091537962109825E1  
 1.235696821515893E11   -3.163621104695137E1  -1.091283914633355E1  -8.898450501692022   3.731428130218502E1  -8.883118238854548   5.933004555424866  -3.177369186380949E1  -4.655230350323816E1  
 1.235819070904646E11   -3.131918685732098E1   1.548246054980632  -8.927742765564238   1.246377319962445E1  -8.921309901783500  -1.895962600894117E1  -3.430632631929302E1   4.713477545798616E1  
 1.235941320293399E11   -2.852554202896846E1   6.250585234835212  -8.962670383009561  -1.251254542496794E1  -8.960207048653363  -4.344271124842216E1  -2.525175881706207E1   5.171036493087859E1  
 1.236063569682152E11   -2.573943271769229E1  -1.933474281735095  -8.987754520929759  -3.685958452309539E1  -8.990417125285482  -6.800870292839572E1  -2.127165255643724E1   3.583874378314000E1  
 1.236185819070905E11   -2.353942685094168E1  -1.635441900989117E1  -8.999194842321476  -6.124773773297464E1  -8.997278523378171  -9.222498014759934E1  -1.929102152779469E1   1.788897831677527E1  
 1.236308068459658E11   -2.233125053955566E1  -3.518586866451123E1  -8.985803434520076  -8.582760312217262E1  -8.981085256679172  -1.168691984760527E2  -1.849543000714754E1  -1.447866145923144E-1  
 1.236430317848411E11   -2.211261131352196E1  -5.546266907127637E1  -8.966593567472305  -1.102643707906589E2  -8.961785505492880  -1.412484763895636E2  -1.867522895501070E1  -1.742481123515370E1  
 1.236552567237164E11   -2.288766641567020E1  -7.564112361061538E1  -8.914796194760360  -1.350232377897203E2  -8.926409882931596  -1.654959437781591E2  -1.989572637727407E1  -3.241906863093449E1  
 1.236674816625917E11   -2.484038175302855E1  -9.424701467787575E1  -8.881916616777787  -1.598171930850174E2  -8.890324066716874   1.698742206291556E2  -2.215615801048796E1  -4.154225296177675E1  
 1.236797066014670E11   -2.829228299884565E1  -1.093788883165577E2  -8.856160792303477   1.752852756615247E2  -8.854447000957631   1.453510709740817E2  -2.477957991251639E1  -3.582325413425414E1  
 1.236919315403423E11   -3.468841322117820E1  -1.073060156415107E2  -8.842092443540825   1.506980510152109E2  -8.839817845837734   1.202094774713766E2  -2.486642790446576E1  -1.938933233626403E1  
 1.237041564792176E11   -3.604077909480260E1  -4.202259692801866E1  -8.817956703290836   1.260237839714803E2  -8.825487798771341   9.552238348789372E1  -2.290164242926414E1  -1.439242043440085E1  
 1.237163814180929E11   -2.939105936772971E1  -3.412110320811344E1  -8.807481122481184   1.010236390908272E2  -8.817256264842035   7.072409657950098E1  -2.118186411945997E1  -2.132042970477158E1  
 1.237286063569682E11   -2.627301530529247E1  -4.928554696519076E1  -8.813102370035219   7.618644439234851E1  -8.808638544849474   4.611059887287028E1  -2.041506052405466E1  -3.440059391973408E1  
 1.237408312958435E11   -2.519340383885489E1  -6.716238068606640E1  -8.817695621495938   5.141543534619412E1  -8.813905013210482   2.144827277934219E1  -2.085275206789590E1  -4.951826768830788E1  
 1.237530562347188E11   -2.538874379650694E1  -8.422476668220197E1  -8.816587456055611   2.650651162050495E1  -8.816801492837119  -3.189222359108383  -2.273489805273048E1  -6.351080147584630E1  
 1.237652811735941E11   -2.680019869908034E1  -9.774803669030167E1  -8.812669222122331   1.760916999995757  -8.818963825735651  -2.757584684504623E1  -2.657187935212807E1  -7.004837709189758E1  
 1.237775061124694E11   -2.898180944862710E1  -1.038363575380764E2  -8.806207619624820  -2.300897674899206E1  -8.820862802586774  -5.230567831356100E1  -3.125366715040335E1  -4.310572206649690E1  
 1.237897310513447E11   -3.116544626509856E1  -9.568659274434017E1  -8.804895733780656  -4.742571650754196E1  -8.806571836133520  -7.709793503677172E1  -2.796422210442381E1  -5.590381622042894  
 1.238019559902201E11   -3.047435977194997E1  -7.762935440496314E1  -8.768818904439872  -7.244127115999868E1  -8.769825176039706  -1.014790093600562E2  -2.387501720420450E1  -5.270411663662760  
 1.238141809290954E11   -2.753528888217363E1  -7.914928385359333E1  -8.756162133389251  -9.748201771837874E1  -8.751288910532479  -1.262666309726493E2  -2.156641316106122E1  -1.604464316083773E1  
 1.238264058679707E11   -2.586429187974712E1  -9.419417944318619E1  -8.755714554595048  -1.222313648137198E2  -8.750238438573746  -1.508992115253159E2  -2.062108720066623E1  -2.979640391706138E1  
 1.238386308068460E11   -2.540519890834580E1  -1.147432435921782E2  -8.756093217558489  -1.469418424278900E2  -8.746600584014075  -1.755244571753763E2  -2.079421204994577E1  -4.258629527170947E1  
 1.238508557457213E11   -2.621333174734445E1  -1.376682974722869E2  -8.756596557078364  -1.718145051574815E2  -8.736275320644761   1.596899272829035E2  -2.197718999467470E1  -5.044668536643741E1  
 1.238630806845966E11   -2.852023856477384E1  -1.641446690217645E2  -8.746439699493822   1.633885457247433E2  -8.754352663453247   1.348154785533210E2  -2.346311870456137E1  -4.838322097683698E1  
 1.238753056234719E11   -3.301443325634193E1   1.599108562757776E2  -8.763200423939543   1.388053079228732E2  -8.748046210818115   1.100985595461701E2  -2.335628442080030E1  -3.866545525816490E1  
 1.238875305623472E11   -3.870668413017538E1   7.315288217490414E1  -8.749200173463105   1.137587281613870E2  -8.738259018916349   8.593518323955277E1  -2.177624573543386E1  -3.516901510034098E1  
 1.238997555012225E11   -3.216573746349557E1  -9.781196960465556  -8.745421793589964   8.901826765980208E1  -8.745409591487137   6.102781762726974E1  -2.014537237800998E1  -4.040540852514645E1  
 1.239119804400978E11   -2.787722340518148E1  -4.825619066964008E1  -8.760333456158184   6.405008594581834E1  -8.746790569956270   3.638819050777994E1  -1.904808498490512E1  -5.137808407842671E1  
 1.239242053789731E11   -2.589460712902374E1  -7.742594950680770E1  -8.774463037716396   3.960511121089673E1  -8.769164037555925   1.175649005332368E1  -1.882146111366316E1  -6.515979769930364E1  
 1.239364303178484E11   -2.528839026383051E1  -1.042555006363466E2  -8.771623281298036   1.501671551262230E1  -8.765870542618366  -1.271459017959655E1  -1.949104340874857E1  -7.898741993847845E1  
 1.239486552567237E11   -2.572039957225100E1  -1.306375626032788E2  -8.758259641638983  -9.504490043470167  -8.757649188504994  -3.749535872929439E1  -2.115680117823309E1  -9.023902014909081E1  
 1.239608801955990E11   -2.729810117906592E1  -1.571744226887718E2  -8.745015647932164  -3.435602489327814E1  -8.749231194403990  -6.179144746832147E1  -2.364259030886618E1  -9.343234095697594E1  
 1.239731051344743E11   -3.023603461251987E1   1.737803089128308E2  -8.720327049851473  -5.888785743397274E1  -8.706614993163813  -8.608349534693068E1  -2.570961754855118E1  -8.400146556653515E1  
 1.239853300733496E11   -3.611657802151802E1   1.357215851655484E2  -8.673930681542755  -8.338880956953133E1  -8.661827545025224  -1.110197960989133E2  -2.549854254421942E1  -6.933453946130885E1  
 1.239975550122250E11   -4.580084591533556E1   2.774193519522163E1  -8.637372074566610  -1.083310719862717E2  -8.635238940726284  -1.359036654981215E2  -2.377346374699685E1  -6.634628919020342E1  
 1.240097799511003E11   -3.756285743240125E1  -6.349597322490548E1  -8.640274103923664  -1.336343115475589E2  -8.625170828029185  -1.608530232513421E2  -2.250970749664824E1  -7.356607307750089E1  
 1.240220048899756E11   -3.404687469522497E1  -1.003563536343086E2  -8.655075089751781  -1.581801883620389E2  -8.634133533215982   1.742744634524285E2  -2.231592397824100E1  -8.513859783936081E1  
 1.240342298288509E11   -3.334338743495221E1  -1.351094708677601E2  -8.656051108726263   1.772288382953944E2  -8.652908375128369   1.496922028156502E2  -2.339918478865967E1  -9.726394642705786E1  
 1.240464547677262E11   -3.388740932346697E1  -1.737156297260901E2  -8.676868867091113   1.526387655591589E2  -8.665239363597024   1.247270173346525E2  -2.582838274411629E1  -1.029903154393977E2  
 1.240586797066015E11   -3.450926285560785E1   1.369299654425276E2  -8.681350876751385   1.278568472870604E2  -8.660560717104357   1.003795922492528E2  -2.844966992910727E1  -9.304228715919777E1  
 1.240709046454768E11   -3.348556501799210E1   7.961680374466333E1  -8.632382618873724   1.035705486575505E2  -8.619043441327703   7.574211681807059E1  -2.840438246345623E1  -7.196079281312552E1  
 1.240831295843521E11   -3.143720769333872E1   3.222085279746039E1  -8.609077404065552   7.866118608579033E1  -8.585603617559849   5.092475473820983E1  -2.599701683656411E1  -6.619479345238815E1  
 1.240953545232274E11   -3.023491598882779E1  -4.041525200873925  -8.599981945566734   5.380664939878324E1  -8.583019186773681   2.584870490711612E1  -2.418823449371082E1  -7.264028561589713E1  
 1.241075794621027E11   -2.990160348652446E1  -3.181178598782771E1  -8.616074717099329   2.875111912731594E1  -8.599197206558744   1.255226897798043  -2.357059911934910E1  -8.655182174148035E1  
 1.241198044009780E11   -3.087575328323881E1  -5.232980800573056E1  -8.622042968193521   3.958086006988086  -8.606293192130188  -2.377158086433160E1  -2.454434740224446E1  -1.031859582024700E2  
 1.241320293398533E11   -3.290352399439458E1  -6.460965109472311E1  -8.630286339988809  -2.044207097673698E1  -8.631733394290063  -4.833539617876468E1  -2.773727400762438E1  -1.176567506929104E2  
 1.241442542787286E11   -3.528114696824330E1  -5.686593986173444E1  -8.642695097917498  -4.510811836420210E1  -8.646102688660170  -7.303174624931899E1  -3.513161052642313E1  -1.103445252824411E2  
 1.241564792176039E11   -3.387020873475103E1  -3.611601725525956E1  -8.640404002320153  -6.968152576788496E1  -8.624022953869643  -9.760586186128268E1  -3.380379485796414E1  -2.921589496779939E1  
 1.241687041564792E11   -3.002065640530088E1  -3.892328452962221E1  -8.618445020898093  -9.427149214130007E1  -8.598927672594545  -1.223014401962859E2  -2.668076713205942E1  -2.609632446838112E1  
 1.241809290953545E11   -2.749662024533667E1  -5.584482033272289E1  -8.621314590368442  -1.190453551050545E2  -8.605620484995935  -1.474552487707425E2  -2.293726226699089E1  -4.000512039818667E1  
 1.241931540342298E11   -2.642391990837673E1  -7.725254583290916E1  -8.632209032856812  -1.435119414121305E2  -8.616698174661917  -1.721759751061642E2  -2.119417608454093E1  -5.732818677863975E1  
 1.242053789731051E11   -2.658524260736108E1  -1.005138786122631E2  -8.651426410772690  -1.686086807803888E2  -8.628249501652073   1.630998779467896E2  -2.067764633695927E1  -7.516290073648122E1  
 1.242176039119804E11   -2.782703322144507E1  -1.263024926888085E2  -8.652215471475616   1.671844369794010E2  -8.630530154779580   1.384585435238482E2  -2.138290103541473E1  -9.207745892439728E1  
 1.242298288508557E11   -3.063573847724939E1  -1.569338738197539E2  -8.660710018516907   1.426087913996542E2  -8.634221242878203   1.138779112697795E2  -2.326312614697133E1  -1.035695314887890E2  
 1.242420537897311E11   -3.507743595727775E1   1.573949827337384E2  -8.649909995611406   1.179437423068547E2  -8.622942938765812   8.941704346996252E1  -2.589491316799047E1  -1.039465198810242E2  
 1.242542787286064E11   -3.677040072010731E1   6.859096431335985E1  -8.608528743483735   9.313128071316328E1  -8.586555390436715   6.476586637168768E1  -2.745628323164426E1  -8.955539348719221E1  
 1.242665036674817E11   -3.221249324893316E1   8.647129274029650  -8.575958800893499   6.843161500272304E1  -8.546907690828439   3.987528896766129E1  -2.616072706098036E1  -7.590889843350730E1  
 1.242787286063570E11   -2.945284273767311E1  -2.551321898211510E1  -8.565452113835544   4.351885578369733E1  -8.540407215968800   1.492526087811583E1  -2.397477478108138E1  -7.756826175576016E1  
 1.242909535452323E11   -2.871651186184297E1  -5.204510659152189E1  -8.576416535619194   1.873111002755647E1  -8.562992347891326  -1.019472592919095E1  -2.280108201338512E1  -8.902843302214248E1  
 1.243031784841076E11   -2.943077747185478E1  -7.308993298155110E1  -8.599685261476132  -6.064645187250288  -8.570930224308889  -3.498964596219460E1  -2.306920798968900E1  -1.032289193782651E2  
 1.243154034229829E11   -3.212788475869557E1  -8.785489589990969E1  -8.632256152256572  -3.073747746455640E1  -8.611249674913426  -5.948410865415706E1  -2.493620762388843E1  -1.149468616683231E2  
 1.243276283618582E11   -3.735522566205370E1  -7.730061430456607E1  -8.656822266523038  -5.527830658403595E1  -8.624099607024538  -8.394345460277522E1  -2.856789114808056E1  -1.140390457588783E2  
 1.243398533007335E11   -3.483032327284572E1  -2.265376837713582E1  -8.621134601910590  -7.982290944012149E1  -8.600298807898437  -1.082535031918226E2  -3.056202240814771E1  -8.306804409641619E1  
 1.243520782396088E11   -2.870090863583254E1  -2.722121803203212E1  -8.573100025871218  -1.045234829326373E2  -8.563713337397001  -1.332918949059790E2  -2.700403898302929E1  -6.158767455921912E1  
 1.243643031784841E11   -2.561302234232920E1  -4.612289369490021E1  -8.568248581415539  -1.293305778324931E2  -8.561084544684141  -1.582563787087483E2  -2.325801913274786E1  -6.485765973023048E1  
 1.243765281173594E11   -2.428459750667468E1  -6.692933678552841E1  -8.595840874612319  -1.541547366272972E2  -8.577771877203515   1.770443823836322E2  -2.104621661081292E1  -7.827160933509336E1  
 1.243887530562347E11   -2.416916974853317E1  -8.817183577281458E1  -8.606311567405658  -1.787492717343846E2  -8.591053922319896   1.524035694977311E2  -2.009875271735343E1  -9.525272105862459E1  
 1.244009779951100E11   -2.529353728901079E1  -1.089947195201862E2  -8.629120209948878   1.565430410968310E2  -8.616838980119962   1.277946231269502E2  -2.035405862449192E1  -1.125468640991606E2  
 1.244132029339853E11   -2.808371836817033E1  -1.287742776213165E2  -8.619503473236717   1.318909371957117E2  -8.611701304108156   1.033654723127560E2  -2.172651887855165E1  -1.270973053241625E2  
 1.244254278728606E11   -3.454131066094651E1  -1.444018403744016E2  -8.597051904797926   1.074919160649656E2  -8.594807946688876   7.893248146921921E1  -2.410558361603710E1  -1.352073985304784E2  
 1.244376528117360E11   -4.128478081883684E1  -3.223874583756103E1  -8.551599035752089   8.279957470387505E1  -8.532777275289986   5.464775127718923E1  -2.687831025665147E1  -1.293797592157774E2  
 1.244498777506113E11   -2.984748035684686E1  -3.260727138516209E1  -8.498735054535613   5.792445302478737E1  -8.492747141256412   2.944558175415246E1  -2.727383408205563E1  -1.099307515637773E2  
 1.244621026894866E11   -2.567264946815248E1  -5.102435336507298E1  -8.492748800031826   3.283695028046538E1  -8.487144973931873   4.685518964505664  -2.475876282211878E1  -1.039277171308559E2  
 1.244743276283619E11   -2.377908810814047E1  -7.064963244572043E1  -8.515387796756258   7.840653172188837  -8.509597614428612  -2.031502268679537E1  -2.276291773857315E1  -1.140990426600117E2  
 1.244865525672372E11   -2.320056642102215E1  -8.964264115111698E1  -8.550841406876451  -1.671839230490632E1  -8.536214859418172  -4.498776366574413E1  -2.203584981273129E1  -1.316774829185428E2  
 1.244987775061125E11   -2.366102868839821E1  -1.070825136984353E2  -8.588618332629842  -4.127078502118604E1  -8.579268554879938  -6.955579278252246E1  -2.272342515167148E1  -1.521829058022880E2  
 1.245110024449878E11   -2.528185971808276E1  -1.212921031125675E2  -8.598595528739098  -6.580325872635589E1  -8.582074632642208  -9.392815761760350E1  -2.489067279842982E1  -1.733727910811313E2  
 1.245232273838631E11   -2.803147931171723E1  -1.265148050828083E2  -8.541208717806132  -9.010111782856293E1  -8.535966109679801  -1.183199288331200E2  -2.898933103343232E1   1.626997675295405E2  
 1.245354523227384E11   -3.018821963837552E1  -1.126148541561903E2  -8.492511318275167  -1.148152739151832E2  -8.473307454712330  -1.430510466478783E2  -3.872677489229151E1   1.152562913505448E2  
 1.245476772616137E11   -2.906420621652874E1  -9.730928043048816E1  -8.451101066019595  -1.397020281472018E2  -8.440187632349073  -1.678945802778107E2  -3.485812402294258E1  -2.614633137717159E1  
 1.245599022004890E11   -2.706374008101719E1  -9.770443059766004E1  -8.432969887136503  -1.645726249546566E2  -8.423397228882781   1.671663630226247E2  -2.841379371878868E1  -6.147189862898200E1  
 1.245721271393643E11   -2.602769273534801E1  -1.063767008170030E2  -8.437320538324029   1.703575827468396E2  -8.429203805986919   1.424169363897893E2  -2.612740132421117E1  -8.709077526821629E1  
 1.245843520782396E11   -2.614087901340547E1  -1.158574533972765E2  -8.456433376966150   1.455630415781637E2  -8.448706525279981   1.174729876824490E2  -2.629114541956088E1  -1.097707335285918E2  
 1.245965770171149E11   -2.736714170460138E1  -1.213527713786586E2  -8.470813512442764   1.207285139003740E2  -8.455319203194682   9.315758890041317E1  -2.884747704055415E1  -1.254882385733573E2  
 1.246088019559902E11   -2.890283952659610E1  -1.161884378529093E2  -8.475644525758181   9.603601658402805E1  -8.457790802607711   6.847668729533687E1  -3.458205062040322E1  -1.228900878728891E2  
 1.246210268948655E11   -2.848786760116592E1  -9.844297057117412E1  -8.451712757236065   7.151348947223387E1  -8.437606140319636   4.380754073051985E1  -3.418863414905474E1  -5.418818338917110E1  
 1.246332518337408E11   -2.557248389663592E1  -9.428371962120319E1  -8.446374843741674   4.625036237151358E1  -8.421000604766386   1.892262126451158E1  -2.687803861532525E1  -4.933268227022918E1  
 1.246454767726161E11   -2.319679814027605E1  -1.028049959669622E2  -8.458294358149850   2.127732970321411E1  -8.437728717570501  -5.783415692682823  -2.293466972495301E1  -6.539888963559636E1  
 1.246577017114914E11   -2.190821642178965E1  -1.171009528563579E2  -8.502706185203858  -3.496230156868502  -8.464614269281469  -3.046243870612048E1  -2.089725215029793E1  -8.559588487174857E1  
 1.246699266503667E11   -2.166459041121835E1  -1.328347551926096E2  -8.536266451475608  -2.804228945286351E1  -8.509307846365347  -5.506369272822003E1  -2.027578246622601E1  -1.064274102383690E2  
 1.246821515892421E11   -2.234410154612120E1  -1.489623003703032E2  -8.563041891919898  -5.261238537470659E1  -8.537918705547140  -7.943268199228483E1  -2.089821791959960E1  -1.265814095279312E2  
 1.246943765281174E11   -2.424244236659161E1  -1.626550880165010E2  -8.557892450728160  -7.699377924293952E1  -8.521779993722587  -1.036963484960769E2  -2.275919236773991E1  -1.439189524602535E2  
 1.247066014669927E11   -2.773635479283197E1  -1.675738556618222E2  -8.509703350993938  -1.014430341060484E2  -8.474345844741468  -1.281220141149845E2  -2.618233779139141E1  -1.548387213645605E2  
 1.247188264058680E11   -3.126669252931628E1  -1.421958753785770E2  -8.446634328464034  -1.265333818594858E2  -8.420759948462584  -1.527765349328376E2  -3.157288581468794E1  -1.407426600142306E2  
 1.247310513447433E11   -2.818768779073092E1  -1.137063981712699E2  -8.423429290705917  -1.515830868457309E2  -8.400108885561494  -1.778013530008172E2  -2.987013177382001E1  -9.434535760700335E1  
 1.247432762836186E11   -2.459219918700485E1  -1.168172544507538E2  -8.430143253688646  -1.768350705065375E2  -8.396341314538269   1.571644122543159E2  -2.508583644575590E1  -9.458414262713345E1  
 1.247555012224939E11   -2.259058299995863E1  -1.289642294475287E2  -8.464614788827111   1.586591817897410E2  -8.443550217293046   1.322858906428194E2  -2.265087108246718E1  -1.098197163245749E2  
 1.247677261613692E11   -2.194551215306115E1  -1.433257505796225E2  -8.505497197708959   1.338386085763889E2  -8.484878891868794   1.078640766691441E2  -2.209832349818875E1  -1.289989199168564E2  
 1.247799511002445E11   -2.235683036971552E1  -1.565776244254588E2  -8.545457639490428   1.091827667727026E2  -8.524655001440173   8.350917258080453E1  -2.319647725092485E1  -1.470233375020256E2  
 1.247921760391198E11   -2.387956608269088E1  -1.653521633296846E2  -8.530979054583844   8.494347768774772E1  -8.504698789814640   5.898370392452991E1  -2.591030344658825E1  -1.613802601141051E2  
 1.248044009779951E11   -2.583216493054839E1  -1.620257152748734E2  -8.470981920922695   6.037413113463362E1  -8.468496880147654   3.440906682700165E1  -3.215227219734703E1  -1.616107510604230E2  
 1.248166259168704E11   -2.576177182875393E1  -1.468985599408891E2  -8.444316124443960   3.559991028218308E1  -8.434006190391038   9.449359560537014  -3.308612760677865E1  -8.613835077448891E1  
 1.248288508557457E11   -2.328986444215999E1  -1.412993027453930E2  -8.455024062901204   1.041672335366435E1  -8.425827301086832  -1.543740046589236E1  -2.522131226282293E1  -8.093770579921099E1  
 1.248410757946210E11   -2.101459083790740E1  -1.487877303921796E2  -8.502866023685334  -1.440852763330484E1  -8.477135890461904  -4.026582378820818E1  -2.132081103632193E1  -9.826265942263696E1  
 1.248533007334963E11   -1.964555696879217E1  -1.622753898953864E2  -8.568443131757483  -3.913451981735198E1  -8.540556020048275  -6.490665819871619E1  -1.944444814091462E1  -1.187531985910896E2  
 1.248655256723716E11   -1.913559105176738E1  -1.779990566735116E2  -8.614116846104455  -6.373842356974739E1  -8.608226952033864  -8.926699799797953E1  -1.886003075454643E1  -1.395951296622341E2  
 1.248777506112470E11   -1.951591139585653E1   1.656071418851384E2  -8.643061196631878  -8.784420607100559E1  -8.615737749459235  -1.132880630845480E2  -1.926650751647279E1  -1.595577577613779E2  
 1.248899755501223E11   -2.082933714078711E1   1.502727072192138E2  -8.592470634964050  -1.119304178630179E2  -8.571466878955452  -1.374083500363658E2  -2.064554085765553E1  -1.788849526802842E2  
 1.249022004889976E11   -2.334782630348794E1   1.394963673605571E2  -8.499548563986686  -1.362663606400609E2  -8.480450746710815  -1.617859195149269E2  -2.343193598039030E1   1.629056415214389E2  
 1.249144254278729E11   -2.704133352993945E1   1.414314727231187E2  -8.423842340269003  -1.611437343710944E2  -8.394451341214490   1.733486784561864E2  -2.890365280011654E1   1.552362329538348E2  
 1.249266503667482E11   -2.867622811884201E1   1.688555951553185E2  -8.376444329200089   1.738103106393550E2  -8.352644131389846   1.483762579473196E2  -3.398466992528886E1  -1.528920702395615E2  
 1.249388753056235E11   -2.560668471300582E1  -1.765893446343792E2  -8.379372572968336   1.487161317711272E2  -8.351355015304890   1.232670747542826E2  -2.745841090818190E1  -1.312051431790875E2  
 1.249511002444988E11   -2.294688531845147E1   1.777002502939762E2  -8.411103585581280   1.235775273783410E2  -8.383375147893492   9.845555066433182E1  -2.399987088545323E1  -1.461497856410808E2  
 1.249633251833741E11   -2.169077085208523E1   1.649472368389065E2  -8.454791612352178   9.910653402355663E1  -8.420512238755871   7.399590261161714E1  -2.286150786987763E1  -1.666433097966614E2  
 1.249755501222494E11   -2.162280854702582E1   1.510772712089658E2  -8.460353457936938   7.448586143617942E1  -8.441273148923608   4.936894135844920E1  -2.331564651420502E1   1.708341427287324E2  
 1.249877750611247E11   -2.242877152338037E1   1.394052244532924E2  -8.427367022699748   5.024656102006298E1  -8.400016812969369   2.523291089741282E1  -2.533378017396450E1   1.463844686799035E2  
 1.250000000000000E11   -2.403055608557192E1   1.333295166993296E2  -8.382784043544964   2.547537109129539E1  -8.354171010677844   3.147867443720003E-1  -3.010863052977195E1   1.141379750721481E2  
 1.250122249388753E11   -2.552047634093601E1   1.374339572168887E2  -8.344379225131993   4.792107453821613E-1  -8.326834625115861  -2.440693462032483E1  -3.890639836118050E1   1.684958839440731E1  
 1.250244498777506E11   -2.521615629742507E1   1.471963731459339E2  -8.348187615646893  -2.438776160445259E1  -8.309835890581534  -4.953483686263809E1  -2.950280511959792E1  -7.374053800889531E1  
 1.250366748166259E11   -2.349254730238044E1   1.481123927540130E2  -8.362440176695827  -4.916299360824311E1  -8.334758745155330  -7.435433538583840E1  -2.457773298929042E1  -1.056693725458898E2  
 1.250488997555012E11   -2.202152927821937E1   1.394058029796454E2  -8.405442397129718  -7.390199358554347E1  -8.379821171790683  -9.912499710896920E1  -2.237900648663309E1  -1.316275704844541E2  
 1.250611246943765E11   -2.140432955315974E1   1.255470075517345E2  -8.441982387482856  -9.848504768610586E1  -8.411755979843935  -1.233766115125860E2  -2.162985890355186E1  -1.551958029255620E2  
 1.250733496332518E11   -2.173277397717375E1   1.095551797791567E2  -8.449775353901748  -1.229111194173838E2  -8.404299498075913  -1.479138740390866E2  -2.205709764213647E1  -1.772906057412179E2  
 1.250855745721271E11   -2.319604137785843E1   9.382227206110925E1  -8.396735134886891  -1.472817383546243E2  -8.370454134331524  -1.723768569775759E2  -2.381162904611696E1   1.618725149099574E2  
 1.250977995110024E11   -2.614748782501816E1   8.057094507315480E1  -8.338411517982978  -1.720226494434939E2  -8.316523942246178   1.630537390785675E2  -2.758952625843188E1   1.464539631322900E2  
 1.251100244498778E11   -3.131833389989552E1   8.332745574483676E1  -8.289822809624173   1.629424045974491E2  -8.271354186200705   1.384773734742782E2  -3.466463101117148E1   1.584368601640573E2  
 1.251222493887531E11   -3.339428163313892E1   1.308909454396410E2  -8.278803590123943   1.379441428259634E2  -8.244337197743510   1.135752020629607E2  -3.233257228266932E1  -1.431137669437342E2  
 1.251344743276284E11   -2.815279796653583E1   1.464912172728573E2  -8.293796071903934   1.129764461831437E2  -8.256609982629643   8.848471843048282E1  -2.700013791595254E1  -1.458428603518550E2  
 1.251466992665037E11   -2.508265701938724E1   1.358502025950959E2  -8.336553003808353   8.843367838038191E1  -8.303968994190065   6.355824632409883E1  -2.456265296277392E1  -1.622122503453547E2  
 1.251589242053790E11   -2.398019083816617E1   1.196167160604104E2  -8.325805978874806   6.390350573857639E1  -8.304903217548795   3.886979263660137E1  -2.391884048201775E1   1.782517680727773E2  
 1.251711491442543E11   -2.427889563260733E1   1.030728140379116E2  -8.322339317713121   3.943898571414934E1  -8.291198068442181   1.465226939409209E1  -2.469792418256599E1   1.580830770333603E2  
 1.251833740831296E11   -2.604411056162893E1   8.936488318827109E1  -8.295384550626244   1.503622227829117E1  -8.262152170705015  -1.011782028839595E1  -2.740997004396400E1   1.400399994808843E2  
 1.251955990220049E11   -2.958057424248224E1   8.549609415035694E1  -8.251677082921837  -9.793613464302185  -8.224970818506089  -3.503967556316469E1  -3.381694291434144E1   1.326858869392452E2  
 1.252078239608802E11   -3.269927720136895E1   1.149436863986838E2  -8.236171725127198  -3.462982717719689E1  -8.218340953596325  -5.997760762497303E1  -3.727973859686271E1  -1.479647134947822E2  
 1.252200488997555E11   -2.884499053121489E1   1.398185944888163E2  -8.247110019305673  -5.978529735533157E1  -8.223063321331949  -8.490996523108964E1  -2.868316057819742E1  -1.395078241664448E2  
 1.252322738386308E11   -2.503694717039221E1   1.340360408807569E2  -8.285181569074254  -8.440571948518749E1  -8.254893457921270  -1.097861079786498E2  -2.496958376512949E1  -1.563006094553017E2  
 1.252444987775061E11   -2.308267456928258E1   1.186371259318463E2  -8.312442336274620  -1.090149900538609E2  -8.289136946833112  -1.342992202065809E2  -2.329385541397939E1  -1.764428103090208E2  
 1.252567237163814E11   -2.248189113568747E1   1.012796764093601E2  -8.321081729129725  -1.334581772452362E2  -8.293507865842393  -1.589602417613259E2  -2.303508536250744E1   1.625121462746942E2  
 1.252689486552567E11   -2.297867562142239E1   8.424257540974199E1  -8.297048941227549  -1.577438162107177E2  -8.270948812451508   1.768678719383511E2  -2.413519268972352E1   1.412628194055204E2  
 1.252811735941320E11   -2.484665524028464E1   6.951080143734130E1  -8.267144476005305   1.776083986235240E2  -8.238147043131843   1.520721682105171E2  -2.712216126962074E1   1.223418258990266E2  
 1.252933985330073E11   -2.842495332674935E1   6.349991169495814E1  -8.218666613882114   1.528172868980199E2  -8.201635088818614   1.271587735174332E2  -3.383979098230031E1   1.157451447860923E2  
 1.253056234718826E11   -3.237162766289909E1   8.587330736689320E1  -8.205699351231955   1.278649016245625E2  -8.178010209840730   1.022618530729098E2  -3.692060934670767E1  -1.620155734009734E2  
 1.253178484107580E11   -2.943066945288478E1   1.163580170402759E2  -8.221821370264495   1.032459301576273E2  -8.191962360910107   7.715451659307303E1  -2.873030419483539E1  -1.558920340381722E2  
 1.253300733496333E11   -2.565318958901004E1   1.133571206736545E2  -8.241448669279469   7.837951078680371E1  -8.216974077326498   5.230403086319701E1  -2.511493358896373E1  -1.730672366963807E2  
 1.253422982885086E11   -2.378164765496730E1   1.000243204330046E2  -8.271985042735844   5.379439600323087E1  -8.237416219898449   2.775443784674884E1  -2.374732972044919E1   1.673269088764917E2  
 1.253545232273839E11   -2.340399915916048E1   8.387283774452104E1  -8.274351525714939   2.938619930084006E1  -8.252348937045548   3.154028682699131  -2.385972931140728E1   1.468297476100779E2  
 1.253667481662592E11   -2.429728807127221E1   6.897669785477285E1  -8.252453999350816   4.643257695672067  -8.221929903756159  -2.146130576537849E1  -2.561684477363410E1   1.286096105904648E2  
 1.253789731051345E11   -2.677509399300553E1   5.907667646921836E1  -8.217239904113468  -2.008393057178274E1  -8.195258067365531  -4.639140286626770E1  -2.988395818561951E1   1.186309720849442E2  
 1.253911980440098E11   -3.051685156675826E1   7.015836201348706E1  -8.191156708140252  -4.478553039081985E1  -8.169606271628016  -7.107495260873759E1  -3.543973626081198E1   1.604168787910589E2  
 1.254034229828851E11   -2.940366627002241E1   1.044804897035256E2  -8.202040334666791  -6.966816601932875E1  -8.195855454981551  -9.616861887094890E1  -2.861466304919635E1  -1.658291357565976E2  
 1.254156479217604E11   -2.505600571096737E1   1.086245608603220E2  -8.252888452369527  -9.467224946214425E1  -8.228201075015710  -1.211323290579264E2  -2.394107715088638E1  -1.766032411634240E2  
 1.254278728606357E11   -2.230644162597134E1   9.667152236862630E1  -8.294632252833614  -1.191968303050498E2  -8.276444865983077  -1.457848126046181E2  -2.148122078138458E1   1.649663192922307E2  
 1.254400977995110E11   -2.092722272757634E1   8.007655269622339E1  -8.325362325451678  -1.437172727691063E2  -8.302645380822389  -1.701645015825043E2  -2.040308665695479E1   1.446149468990785E2  
 1.254523227383863E11   -2.060410716223532E1   6.240010057729058E1  -8.330715176859741  -1.681493449008907E2  -8.312989917973649   1.655205233090657E2  -2.046579670413721E1   1.242200981006557E2  
 1.254645476772616E11   -2.134037231584408E1   4.513771537707817E1  -8.288572634584742   1.676394424488503E2  -8.288899021085648   1.410151461048898E2  -2.164735401234902E1   1.046964087164792E2  
 1.254767726161369E11   -2.328648669328612E1   3.021947416252456E1  -8.232612048685105   1.430654037173165E2  -8.230218828092072   1.163742052388294E2  -2.434521606322522E1   8.880949254842975E1  
 1.254889975550122E11   -2.693529734606866E1   2.474613168504349E1  -8.189492750290739   1.182200988199803E2  -8.186079468894082   9.169128972856285E1  -2.935457122878325E1   8.716169021060480E1  
 1.255012224938875E11   -3.048684289751605E1   4.932660652752971E1  -8.180668315096312   9.331538550843821E1  -8.171671878495888   6.669428153557428E1  -3.180171861019673E1   1.348014569148523E2  
 1.255134474327628E11   -2.735911151502796E1   7.554547715193341E1  -8.199043213364815   6.813855465081470E1  -8.187347038799697   4.164311554187249E1  -2.595147502746702E1   1.493935992831154E2  
 1.255256723716381E11   -2.368953614756800E1   7.098144716834672E1  -8.244761410987463   4.359732269389222E1  -8.240200294013649   1.675080669664885E1  -2.245953752135701E1   1.367168492587091E2  
 1.255378973105134E11   -2.164107466559888E1   5.642596129338267E1  -8.272282530189504   1.888208804589237E1  -8.279650542711385  -7.383714728361459  -2.070718071450059E1   1.187770484586324E2  
 1.255501222493888E11   -2.091791502251601E1   3.849579904233721E1  -8.284451342854316  -5.358111324204421  -8.275788545580735  -3.187141017610792E1  -2.020493530499014E1   9.927623899511903E1  
 1.255623471882641E11   -2.120406659727329E1   1.960532862478945E1  -8.254786457037490  -2.998733364059740E1  -8.249035108795241  -5.613913778309698E1  -2.076909067209291E1   7.990702780419396E1  
 1.255745721271394E11   -2.265046545042371E1   2.246030390767300E-1  -8.194035394388862  -5.469500694241884E1  -8.206572606971916  -8.050650703368748E1  -2.256554954122002E1   6.221674489314570E1  
 1.255867970660147E11   -2.561956786819800E1  -1.681068263098621E1  -8.155212626938749  -7.922396827921121E1  -8.153748658493498  -1.053320788306998E2  -2.581441184971703E1   4.997995351229771E1  
 1.255990220048900E11   -3.129199543068833E1  -2.605285617937679E1  -8.114709717822942  -1.044920452731025E2  -8.115289298252060  -1.301177069166048E2  -3.079237674746384E1   5.775542703836377E1  
 1.256112469437653E11   -3.852431129090163E1   2.349734547804916E1  -8.105690948298491  -1.293632069848952E2  -8.108751001327041  -1.550541514795687E2  -3.090408924212808E1   9.746720909736904E1  
 1.256234718826406E11   -3.165486903869039E1   5.786464742517445E1  -8.118714932197182  -1.540368566792269E2  -8.103733985455849  -1.799826494678171E2  -2.703257557541705E1   1.031690039305309E2  
 1.256356968215159E11   -2.820578494732934E1   4.699181568760045E1  -8.126225813813225  -1.787608889914457E2  -8.127289267999700   1.554930767105856E2  -2.498342000459035E1   9.253451787533784E1  
 1.256479217603912E11   -2.760381907723777E1   2.971291971951956E1  -8.122852940064030   1.562498366342961E2  -8.120400670950493   1.307152856014078E2  -2.473310125784295E1   7.850083923994500E1  
 1.256601466992665E11   -2.954713511778776E1   1.183756411843075E1  -8.115090486689869   1.315646731863731E2  -8.114611224563792   1.062577208047227E2  -2.613414539936031E1   6.732363473002202E1  
 1.256723716381418E11   -3.600533991968402E1   3.896244498173193  -8.106837745298591   1.066627774893140E2  -8.108798025909135   8.133603001099924E1  -2.906556511790594E1   7.022900166171419E1  
 1.256845965770171E11   -3.770796667136055E1   1.088423539376083E2  -8.118087316371964   8.158208940173621E1  -8.108005562754164   5.642959692664810E1  -2.941752990690580E1   9.945335623839625E1  
 1.256968215158924E11   -2.783148642024455E1   1.083408755011488E2  -8.152864131508009   5.638972389258758E1  -8.138987147355993   3.176311798729725E1  -2.503806681762701E1   1.106142848273353E2  
 1.257090464547677E11   -2.339721633728722E1   9.068445386508634E1  -8.217918532920285   3.156630707683482E1  -8.208915897745177   6.996889878525103  -2.167051393760485E1   1.005275071766411E2  
 1.257212713936430E11   -2.099607990658693E1   7.157187349616416E1  -8.273456280180923   7.198806425171923  -8.261559995879672  -1.744484402178697E1  -1.958302283717314E1   8.337724340462515E1  
 1.257334963325183E11   -1.985039660026737E1   5.245176651634190E1  -8.318537998693307  -1.697292981664921E1  -8.305374637860728  -4.162225452381249E1  -1.865042705783904E1   6.405988852364253E1  
 1.257457212713937E11   -1.962958001088349E1   3.413006147663822E1  -8.315913066361807  -4.144958939412388E1  -8.309804526838606  -6.579741966445671E1  -1.868090948293812E1   4.380277333512858E1  
 1.257579462102690E11   -2.029658715983906E1   1.768024670831361E1  -8.275623011346060  -6.601590435012089E1  -8.283309964683458  -8.986615762594455E1  -1.970804973805031E1   2.299166193422765E1  
 1.257701711491443E11   -2.186095751685908E1   4.561550026717344  -8.223836391688666  -9.049243065234651E1  -8.209606887723380  -1.144925098316937E2  -2.205022232526983E1   2.449052439572388  
 1.257823960880196E11   -2.431076786391530E1  -4.539870886319449E-1  -8.161966149387499  -1.153346280526607E2  -8.145447199348359  -1.391914461616818E2  -2.678146528131426E1  -1.487155481560431E1  
 1.257946210268949E11   -2.643730156592083E1   9.756565765117438  -8.123508037914833  -1.402146348302325E2  -8.125118943827063  -1.638915885508818E2  -3.863690910699810E1   8.064408921231673  
 1.258068459657702E11   -2.554912473333984E1   2.459395606668933E1  -8.123612556842156  -1.654603367723666E2  -8.117826816277855   1.711178250309662E2  -2.971820730072583E1   8.860927533524988E1  
 1.258190709046455E11   -2.335950174954433E1   2.397570410906856E1  -8.144291608486876   1.699882883343011E2  -8.148407584278175   1.461731637592750E2  -2.425156181115784E1   7.477306751276619E1  
 1.258312958435208E11   -2.204774307033677E1   1.351367530316103E1  -8.174941299567198   1.453409870304085E2  -8.170408541468792   1.216093666040589E2  -2.202763266224845E1   5.579549370113707E1  
 1.258435207823961E11   -2.190002244864655E1  -9.249187791531007E-1  -8.170631402146034   1.207722606300067E2  -8.172851209737106   9.699039226377789E1  -2.150361287754544E1   3.607831865483750E1  
 1.258557457212714E11   -2.289102855836435E1  -1.549462812795456E1  -8.152380669072340   9.621700178975971E1  -8.131536521550501   7.265467494978604E1  -2.254927696460709E1   1.784954845681237E1  
 1.258679706601467E11   -2.557191851191931E1  -2.696027549074974E1  -8.115599154870235   7.126661154704685E1  -8.096545229996368   4.780626877846996E1  -2.524401352635302E1   5.362292666298559  
 1.258801955990220E11   -3.053208948453411E1  -2.045336151200050E1  -8.080666574420956   4.651078322557032E1  -8.076761671274785   2.297957865780804E1  -2.977645852379758E1   1.506162861758526E1  
 1.258924205378973E11   -3.105313336097674E1   2.862972872238085E1  -8.090232965000572   2.145283322171117E1  -8.082393714823912  -2.104229089363749  -2.881741123577795E1   5.596133618097896E1  
 1.259046454767726E11   -2.560014166746148E1   3.896920862064706E1  -8.128331215030435  -3.434967323726336  -8.119707274050308  -2.720092167008215E1  -2.398421556367898E1   5.868345889671856E1  
 1.259168704156479E11   -2.237055908766208E1   2.819133146806788E1  -8.183007376718420  -2.812367829975172E1  -8.171329772384341  -5.165741535923095E1  -2.114495881747400E1   4.438362986574246E1  
 1.259290953545232E11   -2.086453930279341E1   1.251206102497891E1  -8.221747891390725  -5.246556692236252E1  -8.213349551228827  -7.633748307345779E1  -1.986277443460065E1   2.573383805845315E1  
 1.259413202933985E11   -2.060642309671029E1  -3.175173594698413  -8.226094644668898  -7.675461361277981E1  -8.208009935667784  -1.002601521317716E2  -1.980772879645067E1   5.271716392841121  
 1.259535452322738E11   -2.131828589232864E1  -1.762157611661456E1  -8.183482560135397  -1.010875901193713E2  -8.164213449621640  -1.246968612885837E2  -2.100842582993024E1  -1.490099228903780E1  
 1.259657701711491E11   -2.311698110945466E1  -2.755974683396525E1  -8.111954815582772  -1.257410046657484E2  -8.100245815738134  -1.496216239852676E2  -2.388074410228847E1  -3.349906930542943E1  
 1.259779951100244E11   -2.584712613485448E1  -2.736803266849871E1  -8.059421067989863  -1.506695537581746E2  -8.052141811481830  -1.744270892007057E2  -3.014209615898083E1  -4.362924897382673E1  
 1.259902200488998E11   -2.734622208665597E1  -8.567039319287938  -8.040963206665980  -1.756438050327977E2  -8.031167870306387   1.605414030161253E2  -3.603972902221280E1   3.320927595938196E1  
 1.260024449877751E11   -2.512215597099719E1   5.369811057895446  -8.062862287192839   1.596531953419094E2  -8.055608623663552   1.354262470148563E2  -2.688401599633611E1   4.953597535235967E1  
 1.260146699266504E11   -2.281956399344459E1   1.527643122278084  -8.101992382931838   1.348832719214646E2  -8.097840926156215   1.106926982065496E2  -2.309490029730093E1   3.344185828886140E1  
 1.260268948655257E11   -2.169095192060406E1  -8.897395133768548  -8.136931608112450   1.105903733705788E2  -8.127653059696328   8.608385294316815E1  -2.166138647575152E1   1.384759071214866E1  
 1.260391198044010E11   -2.163099545475237E1  -2.042067646800248E1  -8.120232684934235   8.632509408110605E1  -8.110071785424719   6.158141146297489E1  -2.190196408468284E1  -6.829627473061480  
 1.260513447432763E11   -2.257025549191349E1  -3.009722300877882E1  -8.073265320364357   6.182113427625800E1  -8.055096182428468   3.706978460238415E1  -2.393420459744924E1  -2.590096140799513E1  
 1.260635696821516E11   -2.460312393291292E1  -3.332117521612307E1  -8.013242429356339   3.689630594794884E1  -8.024618546136844   1.201608975266635E1  -2.901691019613782E1  -3.723127617448012E1  
 1.260757946210269E11   -2.630724219911464E1  -1.931928088270684E1  -8.003463384139266   1.203464225229144E1  -8.016252056355436  -1.335705841541965E1  -3.594198755555095E1   2.769820180779740E1  
 1.260880195599022E11   -2.452625341434255E1  -1.992405293616361  -8.046257696353676  -1.279920114506683E1  -8.038064310858447  -3.847112267512960E1  -2.636217274643041E1   5.489880027450898E1  
 1.261002444987775E11   -2.162500253662969E1  -2.564608294355250  -8.095684853205304  -3.742425145402884E1  -8.102299789487578  -6.329083504838970E1  -2.166793569067995E1   3.965673108444582E1  
 1.261124694376528E11   -1.966741146654854E1  -1.299280291819221E1  -8.162632182379454  -6.184923938261894E1  -8.176775429133594  -8.782241517151647E1  -1.932128736040876E1   1.976074760109998E1  
 1.261246943765281E11   -1.870928177314242E1  -2.741016593717595E1  -8.203507871988700  -8.593832427040320E1  -8.197685855575640  -1.120558556948336E2  -1.834612488200080E1  -9.541826188148597E-1  
 1.261369193154034E11   -1.865180070676695E1  -4.230095433851535E1  -8.193933550881809  -1.101336383110563E2  -8.174923137254838  -1.363219118802394E2  -1.852520383693737E1  -2.220484059140226E1  
 1.261491442542787E11   -1.939347951851293E1  -5.676519722545267E1  -8.111255660232324  -1.341872733563929E2  -8.107940561539337  -1.608614031424181E2  -1.979642589979589E1  -4.240435174379656E1  
 1.261613691931540E11   -2.118326225882712E1  -6.921760861713661E1  -8.039385267545713  -1.588990034566954E2  -8.041097288382650   1.745281656732181E2  -2.246668827047167E1  -6.080766345171366E1  
 1.261735941320293E11   -2.407912700168269E1  -7.340263145684659E1  -7.988124574892302   1.762295690951292E2  -7.983009138075227   1.494959319922766E2  -2.767417848380424E1  -7.181443218179567E1  
 1.261858190709047E11   -2.678034849765593E1  -6.024609296294891E1  -7.968142579512303   1.512076262688906E2  -7.962073180944181   1.243325296324626E2  -3.480305412948412E1  -2.932439046737111E1  
 1.261980440097800E11   -2.604343369697146E1  -4.005484359088216E1  -7.978433709116710   1.264445772042863E2  -7.970041467041787   9.926454683609747E1  -2.838580372595221E1   8.854053609886780  
 1.262102689486553E11   -2.393773685089626E1  -3.769079768510664E1  -8.008985832872623   1.016736626180052E2  -7.993186829618950   7.449935607644987E1  -2.458540221925785E1  -3.163702583935032  
 1.262224938875306E11   -2.270748981486756E1  -4.462533248032226E1  -8.017804189652328   7.720308767421490E1  -8.017646456534767   4.983393552578386E1  -2.343271211128332E1  -2.211145405385365E1  
 1.262347188264059E11   -2.256173254070989E1  -5.431613953904581E1  -7.997494412872072   5.271154027988338E1  -7.983853674347443   2.528386325026846E1  -2.435600016138276E1  -4.245861435977616E1  
 1.262469437652812E11   -2.362330403586990E1  -6.245448334375876E1  -7.961420542033178   2.772965313390616E1  -7.950802187695951   3.182887226766509E-1  -2.767478668465246E1  -6.183931131068279E1  
 1.262591687041565E11   -2.553542522456193E1  -6.164037149386829E1  -7.952796838075091   2.937965806064278  -7.943908513988094  -2.446168885815241E1  -3.799974690300965E1  -6.715630623826355E1  
 1.262713936430318E11   -2.643041478201776E1  -4.711592208269620E1  -7.969760168852935  -2.252652760257735E1  -7.956667023651719  -4.936124389193748E1  -3.275594736358659E1   5.303167984685391E1  
 1.262836185819071E11   -2.472315310523098E1  -3.562855038699770E1  -8.007728463002801  -4.717612059202012E1  -8.000493115810416  -7.428682378975185E1  -2.520123893725323E1   3.829004556718054E1  
 1.262958435207824E11   -2.256820836900237E1  -3.738884955472113E1  -8.050948468593756  -7.182527526623217E1  -8.065547377544448  -9.881888392184119E1  -2.203957388415030E1   1.752584224087160E1  
 1.263080684596577E11   -2.138973865554908E1  -4.618054791249065E1  -8.107842301948050  -9.607394685795470E1  -8.103911057786480  -1.233395069238705E2  -2.093348655870506E1  -3.914526319229632  
 1.263202933985330E11   -2.110477104532690E1  -5.581982761575213E1  -8.089829032821349  -1.205183472588349E2  -8.088852732300209  -1.475295852334432E2  -2.143514697443846E1  -2.481887322133499E1  
 1.263325183374083E11   -2.162513572978071E1  -6.471500963640260E1  -8.034126497546309  -1.451288464749668E2  -8.018883034771069  -1.719831398491755E2  -2.391974330638460E1  -4.257428789223232E1  
 1.263447432762836E11   -2.298855287878923E1  -6.844784422261137E1  -7.991837829045778  -1.701718845327290E2  -7.984071247390565   1.631929958432930E2  -2.999807397812622E1  -4.811899431641673E1  
 1.263569682151589E11   -2.427955264579559E1  -6.036280512314755E1  -7.976040335735361   1.646936950127937E2  -7.976427868346202   1.379283493125792E2  -3.249198652997053E1   3.239906543048467E1  
 1.263691931540342E11   -2.317817640761914E1  -4.741441239975598E1  -8.017046979079483   1.396717786567969E2  -8.021190118395312   1.130328967188569E2  -2.380370785281137E1   4.039802695287696E1  
 1.263814180929095E11   -2.083428321547776E1  -4.683176889712789E1  -8.110451306752992   1.147453681887001E2  -8.100884633554433   8.846676651592695E1  -1.964901519007599E1   2.411262029368636E1  
 1.263936430317848E11   -1.899967255768114E1  -5.583306994377628E1  -8.185235273921787   9.024435629820542E1  -8.204530026631844   6.407166060606200E1  -1.750972606428122E1   4.740263821836271  
 1.264058679706601E11   -1.802825957418747E1  -6.868850466417410E1  -8.225770400862274   6.633815688985682E1  -8.223285166965191   4.023016665514081E1  -1.670884034826100E1  -1.459268000808770E1  
 1.264180929095355E11   -1.776431141549355E1  -8.374836416688684E1  -8.183121161835164   4.194615189508095E1  -8.183345825049752   1.630601437731365E1  -1.693468394214112E1  -3.297390175760868E1  
 1.264303178484108E11   -1.846669555491649E1  -9.951277493712193E1  -8.107259131182801   1.754556687303363E1  -8.104365879575431  -8.178935135870571  -1.815982458571302E1  -4.935528691191315E1  
 1.264425427872861E11   -2.038315075242386E1  -1.139417046347098E2  -8.021671994008718  -7.222615006054508  -8.019336752909215  -3.274351025664727E1  -2.065361113349987E1  -6.040330567139684E1  
 1.264547677261614E11   -2.396636117361592E1  -1.207628596272408E2  -7.967553213673978  -3.213078490407560E1  -7.963105546808702  -5.800944439134696E1  -2.419257426409414E1  -5.603923285587578E1  
 1.264669926650367E11   -2.829220435523390E1  -1.005460142523918E2  -7.951769309805174  -5.755642375734641E1  -7.949813465091627  -8.285477125134000E1  -2.477976391131305E1  -2.912304322460911E1  
 1.264792176039120E11   -2.616620686095735E1  -6.664998391018142E1  -7.994363203414597  -8.257054609411236E1  -7.993589224415564  -1.077234959448063E2  -2.151351789709284E1  -2.036693715402063E1  
 1.264914425427873E11   -2.255427614544579E1  -6.544725898627739E1  -8.058537945624558  -1.071195599914489E2  -8.067295479689626  -1.323144280232820E2  -1.921096136496497E1  -3.035882461574088E1  
 1.265036674816626E11   -2.052125647305451E1  -7.550951201095641E1  -8.071912739291946  -1.316199606864506E2  -8.080283987293438  -1.566549433336595E2  -1.836801882013728E1  -4.597742440079006E1  
 1.265158924205379E11   -1.974495698847974E1  -8.945243748708374E1  -8.054395832326748  -1.561948164098342E2  -8.042517654290203   1.790907705185500E2  -1.883950061587838E1  -6.250882136241071E1  
 1.265281173594132E11   -2.024602523998468E1  -1.030172360977483E2  -8.004028090906648   1.791476208433937E2  -8.003540313203049   1.544343508832733E2  -2.084814096746360E1  -7.783473845886434E1  
 1.265403422982885E11   -2.195653758754182E1  -1.112152189127020E2  -7.961926874215141   1.541714732020901E2  -7.971255085956952   1.296200430604485E2  -2.514737126474372E1  -8.499977969855311E1  
 1.265525672371638E11   -2.413786668274670E1  -1.071091509911346E2  -7.950836392123585   1.289604688810782E2  -7.969233727357444   1.047747439436513E2  -3.055439581627796E1  -4.241424369152347E1  
 1.265647921760391E11   -2.423160086326344E1  -9.057750549775028E1  -8.009875577852339   1.037653048902492E2  -8.022925498137099   7.957143587052697E1  -2.417487658435324E1  -7.956312682875932  
 1.265770171149144E11   -2.200557328708134E1  -8.492278471723614E1  -8.097336474587904   7.934657211416860E1  -8.108778906522543   5.504824614812774E1  -1.972776578736099E1  -1.783083690915685E1  
 1.265892420537897E11   -2.007501631876663E1  -9.086226661603462E1  -8.154335833318571   5.525333177340025E1  -8.158270976149733   3.088444500879126E1  -1.764545903542279E1  -3.434245970380986E1  
 1.266014669926650E11   -1.877796592880532E1  -1.030551438153307E2  -8.126498937575315   3.073142815115015E1  -8.139859682307574   6.778501145448914  -1.697146507499284E1  -5.144271427159555E1  
 1.266136919315403E11   -1.845533022506033E1  -1.185982636519667E2  -8.084282874476415   6.442525191978204  -8.098642223193972  -1.762079797059064E1  -1.729650183264009E1  -6.754330635563348E1  
 1.266259168704157E11   -1.929536322807902E1  -1.356815079729043E2  -8.021437408691682  -1.787212398726827E1  -8.028022031167147  -4.202825517584998E1  -1.869956269781189E1  -8.172328438183560E1  
 1.266381418092910E11   -2.151433989932819E1  -1.506116117785145E2  -7.972499895717089  -4.299575021177373E1  -7.983106660057346  -6.702322900412860E1  -2.134228329245020E1  -8.863135579936611E1  
 1.266503667481663E11   -2.555917376146168E1  -1.556044405720364E2  -7.943062935019026  -6.804225633986533E1  -7.946576960215680  -9.180632901140966E1  -2.419030164914567E1  -7.639393375339380E1  
 1.266625916870416E11   -2.987839699628469E1  -1.279022616673719E2  -7.974194958358890  -9.276572518378461E1  -7.981909306003292  -1.172213179046835E2  -2.306360650629575E1  -5.457220092721516E1  
 1.266748166259169E11   -2.681780318815866E1  -9.649215333691821E1  -8.038004698472971  -1.176026755456808E2  -8.031122056318299  -1.416589724348784E2  -2.032572772379993E1  -5.533334174336769E1  
 1.266870415647922E11   -2.308788273889810E1  -9.737490631129212E1  -8.022174584848170  -1.417497616331395E2  -8.035997914618479  -1.662512032766945E2  -1.885280547310145E1  -6.624610426331034E1  
 1.266992665036675E11   -2.109382490680034E1  -1.105506345006352E2  -8.006740684185363  -1.664143075000482E2  -8.009926393645115   1.695315551020907E2  -1.852140976756146E1  -8.026881120351709E1  
 1.267114914425428E11   -2.062971053663995E1  -1.268399984585125E2  -7.965129094239535   1.692168761618207E2  -7.980881546929129   1.449482443458242E2  -1.936053179274708E1  -9.492924628199233E1  
 1.267237163814181E11   -2.164765972763804E1  -1.417969291729743E2  -7.935167620075509   1.442845611737018E2  -7.957499171548813   1.197928915187845E2  -2.171949172879502E1  -1.076947398427709E2  
 1.267359413202934E11   -2.414576492955836E1  -1.511426699941829E2  -7.913558102745310   1.192381545853093E2  -7.919306728453230   9.476866507374815E1  -2.634857150287638E1  -1.063417666874248E2  
 1.267481662591687E11   -2.752105433154639E1  -1.422609938635789E2  -7.940862478919666   9.428827173556846E1  -7.940410066344533   6.958498626332872E1  -2.820271528788361E1  -6.039905965256244E1  
 1.267603911980440E11   -2.738029775887393E1  -1.145861130909767E2  -8.005760462436983   6.960213388034796E1  -8.007222031359081   4.482076117010276E1  -2.285671962895539E1  -4.611959144537032E1  
 1.267726161369193E11   -2.415910947776988E1  -1.073770233486669E2  -8.060017150423297   4.513833995730298E1  -8.064215786623198   2.042670517183937E1  -1.969723531849691E1  -5.747375118919132E1  
 1.267848410757946E11   -2.167710500363561E1  -1.155062187394891E2  -8.057114733711808   2.104329238172130E1  -8.055436739661522  -3.516261603900468  -1.840393113952968E1  -7.276170286361378E1  
 1.267970660146699E11   -2.045841962057352E1  -1.306856684485299E2  -8.018363560402250  -3.467659517242769  -8.031419852423971  -2.819129671843200E1  -1.826416414794580E1  -8.868884935935986E1  
 1.268092909535452E11   -2.054059416110230E1  -1.480917516458929E2  -7.994464695131535  -2.804404330414654E1  -7.994328114843047  -5.269991015157960E1  -1.925940272154186E1  -1.043233203049117E2  
 1.268215158924205E11   -2.200055172046077E1  -1.643583204645588E2  -7.946154767433171  -5.299934691479695E1  -7.955559561641696  -7.777721489368641E1  -2.180570941955639E1  -1.158513830462476E2  
 1.268337408312958E11   -2.512879717738678E1  -1.756752178897610E2  -7.928100336907303  -7.779186402335236E1  -7.935567580992131  -1.027252567656043E2  -2.619271449921119E1  -1.107494031850335E2  
 1.268459657701711E11   -2.983366008147796E1  -1.669064492180913E2  -7.957107182371020  -1.025374215133659E2  -7.952319434002440  -1.278201428650201E2  -2.674210964783307E1  -7.271320116553403E1  
 1.268581907090465E11   -3.046207716224358E1  -1.271122858052555E2  -8.007121483038613  -1.271401299086643E2  -8.004151613154326  -1.523483525625846E2  -2.258900416651252E1  -6.394119231527768E1  
 1.268704156479218E11   -2.624751578239276E1  -1.153285183775368E2  -7.999989331925453  -1.514734320136406E2  -7.992931806029799  -1.769263176890823E2  -2.030666496532930E1  -7.365329338694585E1  
 1.268826405867971E11   -2.349736120090067E1  -1.260135328815426E2  -7.974899327762971  -1.761529085176234E2  -7.973489444573886   1.583977801124375E2  -1.941543802286934E1  -8.679884259699784E1  
 1.268948655256724E11   -2.272213643694079E1  -1.428292516336465E2  -7.949470944514642   1.593123962200166E2  -7.954920450772629   1.336397436448963E2  -1.979281920882387E1  -1.006060383491297E2  
 1.269070904645477E11   -2.379691817995685E1  -1.595159876941573E2  -7.918196349698592   1.346128803861471E2  -7.924535414543540   1.088772807004231E2  -2.158352651488384E1  -1.112751530853131E2  
 1.269193154034230E11   -2.710837585407668E1  -1.704831203953767E2  -7.903063716289108   1.097600909594687E2  -7.901107992401336   8.361173898415413E1  -2.489625867624904E1  -1.080456996660709E2  
 1.269315403422983E11   -3.295200770791953E1  -1.486420025628822E2  -7.943002044691878   8.463652041222740E1  -7.932875247465627   5.852686255156733E1  -2.557132978419419E1  -7.622847169190966E1  
 1.269437652811736E11   -2.927102646182125E1  -9.764698430848512E1  -8.008266284553379   5.977137535232770E1  -8.010221544749056   3.402203055351048E1  -2.151466527103647E1  -6.505076163742713E1  
 1.269559902200489E11   -2.387747246981648E1  -9.810411784013492E1  -8.063463949589776   3.539434696468889E1  -8.066903156947769   9.299132923645855  -1.857910085449297E1  -7.421491013620256E1  
 1.269682151589242E11   -2.074078594817400E1  -1.123569458008304E2  -8.075431713384656   1.112514589889029E1  -8.092675043532765  -1.519892647372640E1  -1.706765052752500E1  -8.826862198245651E1  
 1.269804400977995E11   -1.924784655712199E1  -1.305235904502653E2  -8.090577558065039  -1.326019649380385E1  -8.090067531519409  -3.953012434611693E1  -1.658001597286216E1  -1.041794008474916E2  
 1.269926650366748E11   -1.912324770055894E1  -1.487975329053712E2  -8.066245401302394  -3.746102927530454E1  -8.083320427104749  -6.403878981039561E1  -1.709149005813547E1  -1.202637110411583E2  
 1.270048899755501E11   -2.017384269664482E1  -1.656438710845591E2  -8.032086687146006  -6.190539276102817E1  -8.037972768505650  -8.847235174209791E1  -1.883787401243026E1  -1.342757883808608E2  
 1.270171149144254E11   -2.270826306594209E1  -1.771646063652301E2  -7.983924626918725  -8.682808957558069E1  -7.988051625607078  -1.137022965148371E2  -2.215523133366775E1  -1.387194472347210E2  
 1.270293398533007E11   -2.660984908003681E1  -1.715995254774435E2  -7.987226346548530  -1.116935661280013E2  -7.999964687832335  -1.387042801511684E2  -2.508775124842358E1  -1.152930299642253E2  
 1.270415647921760E11   -2.730337696076533E1  -1.368623365333608E2  -8.028404816513650  -1.362407782809462E2  -8.021590324323796  -1.636171773596430E2  -2.209818643016294E1  -9.329616325016653E1  
 1.270537897310514E11   -2.286100614080510E1  -1.237695952301764E2  -8.034976546536843  -1.609010876646149E2  -8.054295976480418   1.717817276121642E2  -1.890834475164755E1  -9.730297528193056E1  
 1.270660146699267E11   -1.951972911919967E1  -1.340000066158526E2  -8.080907515715932   1.745245679060972E2  -8.101775548096203   1.469629743245555E2  -1.698524649059100E1  -1.103934640311660E2  
 1.270782396088020E11   -1.779630635448198E1  -1.502110661039548E2  -8.141262996463190   1.500480822548002E2  -8.143545415699263   1.224718615165930E2  -1.610837025083269E1  -1.269366180745634E2  
 1.270904645476773E11   -1.722475635745238E1  -1.677110640423954E2  -8.146640178266130   1.259181196065091E2  -8.152960265223550   9.833114162048956E1  -1.625677793918637E1  -1.453494878943845E2  
 1.271026894865526E11   -1.759417622524090E1   1.754378863293510E2  -8.120747657206813   1.019357292040767E2  -8.124422325804570   7.387154966109335E1  -1.757224615068747E1  -1.637177063887735E2  
 1.271149144254279E11   -1.885983754397382E1   1.603336546728835E2  -8.078209868281407   7.750865939765211E1  -8.079843468403080   4.956964475778169E1  -2.027919022998215E1  -1.790594844849913E2  
 1.271271393643032E11   -2.104710951459555E1   1.485252462910327E2  -8.035690508838560   5.309626707043819E1  -8.038816917438464   2.496857628148808E1  -2.478409406628902E1   1.764437653394670E2  
 1.271393643031785E11   -2.449495348474327E1   1.461482628771634E2  -7.946975131368768   2.861006976322374E1  -7.955771793303785   8.059164444089115E-1  -2.924023030042589E1  -1.571495332272784E2  
 1.271515892420538E11   -2.702412426755374E1   1.686923428430604E2  -7.870169756532338   3.925279220604605  -7.871100184489678  -2.418136718020016E1  -2.683964520520873E1  -1.240317638022308E2  
 1.271638141809291E11   -2.467172503102517E1  -1.740722246521565E2  -7.833894418430901  -2.096172116184534E1  -7.841885854247384  -4.950505113836748E1  -2.332017782626102E1  -1.258818989467145E2  
 1.271760391198044E11   -2.242674021343362E1  -1.786158698376503E2  -7.842049371080852  -4.597943118217680E1  -7.838718350100779  -7.443226932769801E1  -2.186611697268485E1  -1.401885252469531E2  
 1.271882640586797E11   -2.160863788158047E1   1.698139922998699E2  -7.844593972285965  -7.091475562465091E1  -7.852512004459009  -9.918673800876941E1  -2.236098327106091E1  -1.575198865801767E2  
 1.272004889975550E11   -2.214599662502041E1   1.585196798675331E2  -7.851804746991078  -9.569185261084833E1  -7.871580522600352  -1.240822047090394E2  -2.527947523454243E1  -1.728270284915912E2  
 1.272127139364303E11   -2.364001756235247E1   1.510534947920685E2  -7.883048442064323  -1.202530654171788E2  -7.897719726184987  -1.489906461589525E2  -3.194274987088290E1  -1.633882356779751E2  
 1.272249388753056E11   -2.586168625820273E1   1.542689855733464E2  -7.888644069720478  -1.447304858327680E2  -7.903257697719829  -1.733961877365831E2  -3.063338926799660E1  -9.822880393606943E1  
 1.272371638141809E11   -2.647112472261259E1   1.740182867817097E2  -7.862626511045689  -1.693385779327296E2  -7.879903970477221   1.616390663709586E2  -2.443464685713644E1  -9.363504174311825E1  
 1.272493887530562E11   -2.372104831973925E1  -1.765998760943722E2  -7.855408561701417   1.656908216978701E2  -7.863444170130184   1.370590870921191E2  -2.094683017305812E1  -1.065841770475463E2  
 1.272616136919315E11   -2.132659351671298E1   1.753210016373414E2  -7.889210782470673   1.409606751217898E2  -7.879523429002811   1.121426914013030E2  -1.923281083789996E1  -1.241622130718614E2  
 1.272738386308068E11   -2.020765365664887E1   1.612125684362851E2  -7.900301092647696   1.164562083497974E2  -7.897659169040772   8.732909174474791E1  -1.886670878534445E1  -1.431011748802959E2  
 1.272860635696821E11   -2.029123212647865E1   1.449015092254901E2  -7.888032306881364   9.205324122339168E1  -7.896220174427932   6.320889635898858E1  -1.987646887871787E1  -1.605777284085669E2  
 1.272982885085575E11   -2.152700638149425E1   1.293530697383949E2  -7.886905472754398   6.730666179756750E1  -7.876535360526512   3.857206010715498E1  -2.244424597174052E1  -1.727059544717619E2  
 1.273105134474328E11   -2.437905297175687E1   1.168644115129957E2  -7.872728354612829   4.254411651116664E1  -7.865988480364424   1.364565638815286E1  -2.631922233831583E1  -1.664935597625652E2  
 1.273227383863081E11   -2.989426755237506E1   1.211505003725563E2  -7.836821879393447   1.773975641833561E1  -7.837676013335720  -1.066926646291236E1  -2.656529909299545E1  -1.362141361432558E2  
 1.273349633251834E11   -3.036683679186692E1   1.783680116330465E2  -7.816129799583538  -6.936289527760067  -7.823639178303615  -3.573324497463617E1  -2.298727257991655E1  -1.267961673582720E2  
 1.273471882640587E11   -2.442153327231328E1  -1.739704773282194E2  -7.833526952329535  -3.208328504075353E1  -7.836675163912420  -6.026869918623964E1  -2.016881444010414E1  -1.363015785383479E2  
 1.273594132029340E11   -2.143208752390920E1   1.731067540132736E2  -7.883185500074357  -5.690236430248545E1  -7.888537865333649  -8.494537528197937E1  -1.880067638427681E1  -1.525539006538820E2  
 1.273716381418093E11   -2.011438586968598E1   1.568714143131688E2  -7.902498273106786  -8.157319802140442E1  -7.884534420274783  -1.095281880927871E2  -1.867651614747181E1  -1.712607734015833E2  
 1.273838630806846E11   -1.999515943634735E1   1.407877297728616E2  -7.920720844328690  -1.057713166080727E2  -7.907028027400933  -1.341084746296818E2  -1.991970655983450E1   1.701687434817936E2  
 1.273960880195599E11   -2.090523548577027E1   1.263981614352477E2  -7.899201294684884  -1.302949466471011E2  -7.900899257784128  -1.585276069486021E2  -2.268255210590626E1   1.548560630485438E2  
 1.274083129584352E11   -2.299741318847328E1   1.162381432212546E2  -7.856793121239977  -1.547629512904226E2  -7.853519746029910   1.774273048590758E2  -2.784893395320529E1   1.497722475593022E2  
 1.274205378973105E11   -2.612378225219294E1   1.208640924075897E2  -7.788861491040048  -1.798216684164217E2  -7.792731572629541   1.527681008804063E2  -3.298327765803687E1  -1.592239859884306E2  
 1.274327628361858E11   -2.649682696610084E1   1.450944036817739E2  -7.763238454248888   1.550726947814529E2  -7.767577792370085   1.281618238596728E2  -2.606255735751887E1  -1.310142807344929E2  
 1.274449877750611E11   -2.352769795578283E1   1.525952076145569E2  -7.791900353496244   1.301601385567850E2  -7.776430869101895   1.031141244526409E2  -2.198318626226492E1  -1.423946824494590E2  
 1.274572127139364E11   -2.128021699653986E1   1.441898208996822E2  -7.822143259883513   1.052427955299968E2  -7.808210784402752   7.845308252094628E1  -2.028976079079435E1  -1.607190724936060E2  
 1.274694376528117E11   -2.029583249489494E1   1.303954910099143E2  -7.861040489369970   8.034136158009319E1  -7.838775124963430   5.387650005834848E1  -2.014994933086803E1  -1.797179166248922E2  
 1.274816625916870E11   -2.036149428346784E1   1.145401456160089E2  -7.881859908590829   5.595855731004095E1  -7.864754542538838   2.970489862206660E1  -2.151241933080981E1   1.630766494800480E2  
 1.274938875305624E11   -2.164285543483388E1   9.961340850784217E1  -7.841122504195174   3.156415484476090E1  -7.838982216326142   5.341041417237976  -2.421644653998078E1   1.519722326470214E2  
 1.275061124694377E11   -2.463625535638643E1   8.949014068913957E1  -7.779649859705916   6.736503188679030  -7.774345614364338  -1.918826252305646E1  -2.863836294890863E1   1.565205637209208E2  
 1.275183374083130E11   -2.903221072919722E1   1.004603960384773E2  -7.743101001513367  -1.821438483777196E1  -7.720240014706030  -4.399399930628650E1  -2.964885400806959E1  -1.617909157255126E2  
 1.275305623471883E11   -2.840953326278752E1   1.369354778265571E2  -7.716205372875594  -4.306477461466912E1  -7.716131105907649  -6.877440389831867E1  -2.472489379489467E1  -1.502237293546930E2  
 1.275427872860636E11   -2.445643813892419E1   1.423997663552111E2  -7.754636500478568  -6.820146275507945E1  -7.744046720663796  -9.375814782226928E1  -2.174725382701132E1  -1.622602292883657E2  
 1.275550122249389E11   -2.219204971232211E1   1.317400481051144E2  -7.781644749106817  -9.310338309159275E1  -7.768343726337672  -1.183545934172700E2  -2.057163925638936E1  -1.798878351043531E2  
 1.275672371638142E11   -2.138708480964308E1   1.174264723330562E2  -7.810357183284196  -1.175772312951920E2  -7.791189745667206  -1.429694378015610E2  -2.085736622189510E1   1.622044455810134E2  
 1.275794621026895E11   -2.183717399965671E1   1.015511707761143E2  -7.792649594625745  -1.421270016630738E2  -7.802035652833946  -1.673831752382522E2  -2.270395673624378E1   1.468247348639773E2  
 1.275916870415648E11   -2.390867146786152E1   8.887407599276996E1  -7.770465064144597  -1.666239910257430E2  -7.758665689571261   1.680934509712040E2  -2.627426584032357E1   1.412007566176232E2  
 1.276039119804401E11   -2.798625277092230E1   8.977687542824036E1  -7.716858995969195   1.684435312400343E2  -7.724765085403753   1.433940382177296E2  -3.034477885667616E1   1.685401568610791E2  
 1.276161369193154E11   -3.007786651964484E1   1.283591146134946E2  -7.717726842635497   1.435019487774365E2  -7.721692840645647   1.184089745052067E2  -2.622179892432895E1  -1.596650042849990E2  
 1.276283618581907E11   -2.526591981163552E1   1.467504812702809E2  -7.743568536329135   1.184538037587427E2  -7.739067612498070   9.353760858188515E1  -2.191098699982330E1  -1.653724092775562E2  
 1.276405867970660E11   -2.184356458147653E1   1.383518461081723E2  -7.797675936745588   9.389166086513079E1  -7.798655117192805   6.851106980527557E1  -1.959201476088382E1   1.776442084679947E2  
 1.276528117359413E11   -2.007195758780412E1   1.242936354240889E2  -7.846191350973665   6.944282042613565E1  -7.847519054703605   4.397925801874648E1  -1.871404826611522E1   1.582265745899204E2  
 1.276650366748166E11   -1.944791279688966E1   1.085178749105689E2  -7.868865112453448   4.506133241009761E1  -7.873497618138978   1.951058743802647E1  -1.910636531135964E1   1.377975035086041E2  
 1.276772616136919E11   -2.002714442320691E1   9.372953456678889E1  -7.844358952019563   2.078877759863546E1  -7.841626442640099  -4.715844191735766  -2.075364529098633E1   1.188937480099428E2  
 1.276894865525672E11   -2.185380521624471E1   8.227292515985974E1  -7.782797696582669  -3.578673209330694  -7.799596499303100  -2.921594523137816E1  -2.433335890659588E1   1.036039705584835E2  
 1.277017114914425E11   -2.468815192681963E1   8.348769486748925E1  -7.722655865354078  -2.854646089862735E1  -7.737294959791539  -5.431241881358921E1  -3.179342944180691E1   1.115383465898090E2  
 1.277139364303178E11   -2.594902999021780E1   1.061502074930044E2  -7.710622879199859  -5.330204225841791E1  -7.715241586559739  -7.942104823506944E1  -2.945822172025539E1  -1.763932709363823E2  
 1.277261613691932E11   -2.312286319377882E1   1.202726423814652E2  -7.763753554482964  -7.830349614973551E1  -7.763802930913252  -1.044711386822156E2  -2.294687364251455E1   1.789249234134273E2  
 1.277383863080685E11   -2.027686364086005E1   1.155588048363975E2  -7.824373571697921  -1.033317361830175E2  -7.815977181596060  -1.293698896780913E2  -1.992600560484775E1   1.600266201589119E2  
 1.277506112469438E11   -1.857823651395341E1   1.034136659920551E2  -7.889715883567575  -1.271315560332701E2  -7.893819448373026  -1.540352384821363E2  -1.872966343395341E1   1.383574077791977E2  
 1.277628361858191E11   -1.787563544623279E1   8.884368778292827E1  -7.909943541713293  -1.514625159896254E2  -7.930654370573551  -1.782624491847166E2  -1.871762329980811E1   1.165340008367489E2  
 1.277750611246944E11   -1.815593810192578E1   7.451543556393850E1  -7.877302933545058  -1.752642934208447E2  -7.887736138013968   1.573660984094415E2  -1.982194933593524E1   9.445306814200680E1  
 1.277872860635697E11   -1.929375657530645E1   6.245970912225580E1  -7.796885468121742   1.602924947141248E2  -7.813290301547442   1.327402043692726E2  -2.249683993583585E1   7.107333793559117E1  
 1.277995110024450E11   -2.122948282637062E1   5.683350194848877E1  -7.724834080470374   1.357399224700970E2  -7.734690587326958   1.077940792214856E2  -2.834980730953198E1   4.786002327639069E1  
 1.278117359413203E11   -2.306468806807422E1   6.243997737047931E1  -7.691104440058193   1.106897134109299E2  -7.715067152172154   8.244816471056346E1  -5.215533796241849E1  -1.733735556697051E2  
 1.278239608801956E11   -2.292456061728302E1   7.494194806838813E1  -7.698136796982386   8.593041627302834E1  -7.695436819391405   5.717504618406903E1  -2.774180797542005E1   1.761391521658705E2  
 1.278361858190709E11   -2.121306656077649E1   7.754102807224015E1  -7.748406839637537   6.166682084335527E1  -7.751783294991757   3.216461881705018E1  -2.318944234082036E1   1.524502504812317E2  
 1.278484107579462E11   -1.975031561328659E1   7.017430945674474E1  -7.787874110433219   3.709061601040302E1  -7.807277540285562   7.317944107021313  -2.153979022030981E1   1.292285257626144E2  
 1.278606356968215E11   -1.926847699052129E1   5.874565180579922E1  -7.800438492631415   1.297008212872696E1  -7.815240571894034  -1.703311142974877E1  -2.146904176334575E1   1.061429081356679E2  
 1.278728606356968E11   -1.973123104448524E1   4.653699492321885E1  -7.763389444942582  -1.142722332785927E1  -7.778283326993558  -4.169309704894688E1  -2.294365914872924E1   8.332734264355885E1  
 1.278850855745721E11   -2.121769431438706E1   3.736173713696045E1  -7.708369549894705  -3.568132312076384E1  -7.729130665305761  -6.664675177575577E1  -2.691280832414618E1   6.195986699127951E1  
 1.278973105134474E11   -2.344741981473258E1   3.715590452758394E1  -7.671830536903383  -6.032397942712047E1  -7.686922555275310  -9.177685094627273E1  -3.933519156283849E1   5.468529789113683E1  
 1.279095354523227E11   -2.478828975968819E1   5.133866334204661E1  -7.683867814180966  -8.528843495207548E1  -7.686074702272689  -1.167897093166462E2  -3.101183019992614E1   1.786892946139794E2  
 1.279217603911980E11   -2.318617488247895E1   6.364665764971740E1  -7.720177318257028  -1.098723422897130E2  -7.728578329008623  -1.420754915707782E2  -2.414049896279291E1   1.601632503323410E2  
 1.279339853300734E11   -2.091164440800963E1   6.114785148866895E1  -7.784917812077667  -1.343753666666407E2  -7.791470276159231  -1.668466527575597E2  -2.131309725930551E1   1.377780617699184E2  
 1.279462102689487E11   -1.952167587403596E1   4.981720906853495E1  -7.831416913730056  -1.587240991423175E2  -7.836938510453878   1.686225052890461E2  -2.022167233149360E1   1.163873670591622E2  
 1.279584352078240E11   -1.921337114904882E1   3.541453951385606E1  -7.812204461507494   1.774390065319417E2  -7.825699399058957   1.443060369072827E2  -2.044836690306790E1   9.574022772712966E1  
 1.279706601466993E11   -1.991599367835852E1   1.998450528309776E1  -7.760672264784303   1.529972234239104E2  -7.775539802210619   1.199510238600799E2  -2.196133336997680E1   7.670982584914187E1  
 1.279828850855746E11   -2.191429881103727E1   6.286371121260816  -7.699964003132512   1.285125799077142E2  -7.711353399755943   9.484517353712859E1  -2.533258838708356E1   6.336279190137552E1  
 1.279951100244499E11   -2.554433374680216E1   1.178740130991796  -7.664655760116733   1.035706459926279E2  -7.656124440391645   7.025629504553797E1  -3.133160281426665E1   7.697039462513760E1  
 1.280073349633252E11   -2.969690692323612E1   2.467767509378120E1  -7.658493832437249   7.866710345823462E1  -7.659592294238742   4.477557289322042E1  -2.866587835479177E1   1.270254403769412E2  
 1.280195599022005E11   -2.700800089691556E1   5.733044146042317E1  -7.697261862395867   5.363087390016862E1  -7.705065294364404   1.995017542164079E1  -2.371246268170730E1   1.245038463298435E2  
 1.280317848410758E11   -2.334578589950795E1   5.504788506098665E1  -7.758074862690444   2.929061997203938E1  -7.746483400321200  -4.843152710694719  -2.125998509357262E1   1.088335480023030E2  
 1.280440097799511E11   -2.161329709136125E1   4.158619262626373E1  -7.773502782967812   4.914761406390995  -7.761820927752639  -2.889264518730383E1  -2.033515723150057E1   9.047538729030843E1  
 1.280562347188264E11   -2.137192488322426E1   2.510542000179768E1  -7.743928002773964  -1.957295893344804E1  -7.743946439837684  -5.346523129766099E1  -2.079731726309981E1   7.220289444062482E1  
 1.280684596577017E11   -2.265234696869281E1   9.079062755412757  -7.695714668253647  -4.411770828095678E1  -7.695364672331423  -7.811355271023038E1  -2.275971402383762E1   5.687174079067944E1  
 1.280806845965770E11   -2.603159907660732E1  -2.439477792805940  -7.651137182999124  -6.912780171680710E1  -7.653962457578817  -1.024963377342538E2  -2.694246215958588E1   5.307824866483743E1  
 1.280929095354523E11   -3.295497905311455E1   1.653468463202450E1  -7.644122969099009  -9.441098483034749E1  -7.633182008906866  -1.278646772463021E2  -2.965749639992053E1   9.131103968342396E1  
 1.281051344743276E11   -2.910117979387955E1   7.808240438240914E1  -7.702844696101487  -1.194277233211165E2  -7.689689326260970  -1.527928481543272E2  -2.442733918456151E1   1.111902743801720E2  
 1.281173594132029E11   -2.318189720422666E1   7.489447450796037E1  -7.770695089178612  -1.442079186252038E2  -7.761229341008259  -1.774994209050253E2  -2.066389716471158E1   1.008134361788123E2  
 1.281295843520783E11   -2.019506728410102E1   5.942328493263239E1  -7.840428114979837  -1.684537555351758E2  -7.832174086277091   1.585240936114759E2  -1.859786322421016E1   8.364930924422549E1  
 1.281418092909536E11   -1.888526276025668E1   4.192654971696171E1  -7.864114182669166   1.669712927714010E2  -7.853147719842705   1.348034347124782E2  -1.775793812943640E1   6.420493825549633E1  
 1.281540342298289E11   -1.870014005009956E1   2.455982055327517E1  -7.830410448163348   1.428960156167758E2  -7.816042672846074   1.105628513536617E2  -1.795955158400703E1   4.415156019651035E1  
 1.281662591687042E11   -1.957118228856945E1   8.304042404368186  -7.742806334169960   1.182510056010716E2  -7.736746036379243   8.630990850891011E1  -1.935175904064162E1   2.467080878784127E1  
 1.281784841075795E11   -2.176933374992426E1  -4.347077458306307  -7.664126766033056   9.339496039266339E1  -7.640052346117050   6.223672939772084E1  -2.230958053770301E1   8.301658162329451  
 1.281907090464548E11   -2.548513814377866E1  -5.154996930523467  -7.592547121599300   6.824477590991020E1  -7.590016917613534   3.726075687374552E1  -2.809952944045918E1   6.351148346093106  
 1.282029339853301E11   -2.778291325894319E1   2.478422918701876E1  -7.593775091765583   4.268228560403699E1  -7.584417619760535   1.242130980222066E1  -3.034195054784912E1   6.175504626423599E1  
 1.282151589242054E11   -2.425827881055992E1   4.371442520459935E1  -7.633511609466052   1.769628550292239E1  -7.621956042698046  -1.237603061440759E1  -2.409146263033510E1   7.269796256919024E1  
 1.282273838630807E11   -2.125425974634195E1   3.829123853351554E1  -7.688262248664455  -7.109567002749464  -7.676441512263343  -3.679656780739155E1  -2.084469409202112E1   5.790601255205761E1  
 1.282396088019560E11   -1.968336620819963E1   2.598797384008124E1  -7.711547575282015  -3.151215385417445E1  -7.707586682224913  -6.121058110358755E1  -1.951918204337965E1   3.748291039276897E1  
 1.282518337408313E11   -1.924134687241770E1   1.177172951391087E1  -7.693159539576276  -5.608076656260956E1  -7.681849030584247  -8.545924090907236E1  -1.946457036153542E1   1.520512622908542E1  
 1.282640586797066E11   -1.987591897403272E1  -1.028302560250181  -7.646923895349441  -8.039491169628727E1  -7.634943429623767  -1.096695145670417E2  -2.077973645195063E1  -8.516754377525809  
 1.282762836185819E11   -2.134820448283211E1  -9.735257998112772  -7.590804709426956  -1.057630626013161E2  -7.577701825320272  -1.340789224435659E2  -2.398565331850839E1  -3.462469337342112E1  
 1.282885085574572E11   -2.329962801631232E1  -9.830928835746786  -7.561044602589574  -1.305872030133037E2  -7.560770885847870  -1.591055284437294E2  -3.114497388850737E1  -6.791386796920533E1  
 1.283007334963325E11   -2.407821517066240E1   1.366655534896272E-2  -7.557159285496604  -1.558042432334260E2  -7.553547981768348   1.762039455521087E2  -3.734529630037464E1   1.404085567889730E2  
 1.283129584352078E11   -2.309375138224965E1   6.253100363916349  -7.580726685828506   1.793658265810440E2  -7.578953661263809   1.512975503020678E2  -2.725984872791077E1   9.203144595207701E1  
 1.283251833740831E11   -2.188441517557845E1   2.411259112000524  -7.588666653741672   1.546426248955741E2  -7.599244286497829   1.266608182446709E2  -2.387548078517268E1   6.522851022587622E1  
 1.283374083129584E11   -2.148424008461031E1  -6.981903861248097  -7.582336692195967   1.300473906502331E2  -7.583305412580542   1.019645920329601E2  -2.294476476620367E1   4.140963338036571E1  
 1.283496332518337E11   -2.228144980566989E1  -1.819322838524530E1  -7.548133593456593   1.053955754532698E2  -7.565066749468516   7.755975761231817E1  -2.411209525659686E1   1.986990221768389E1  
 1.283618581907091E11   -2.453349160719007E1  -2.573900534655667E1  -7.519126171714076   8.042858317745213E1  -7.521565733509063   5.263617292816655E1  -2.802812084476826E1   3.236467762714499  
 1.283740831295844E11   -2.829777738796579E1  -1.493163108625059E1  -7.508382547307744   5.544786653318776E1  -7.519023913729241   2.784633330539884E1  -3.741326669245415E1   3.849926999788838E1  
 1.283863080684597E11   -2.777091246355310E1   2.167391533641776E1  -7.532561472728457   3.047347253457162E1  -7.536312093616997   2.640937925235415  -2.808773362016171E1   9.726559189846110E1  
 1.283985330073350E11   -2.349226583551713E1   2.955866160484119E1  -7.594070848247019   5.630669941651230  -7.605847052104891  -2.204274343685310E1  -2.241243956381821E1   8.431071153098588E1  
 1.284107579462103E11   -2.066286901236621E1   2.025975253338455E1  -7.646649502859230  -1.890041316160163E1  -7.665535216568009  -4.645499092328640E1  -1.964699101249307E1   6.474194598930789E1  
 1.284229828850856E11   -1.924407760155824E1   5.812037148181492  -7.676893784543060  -4.315410951419701E1  -7.703853279406083  -7.086215667131989E1  -1.841743405208643E1   4.437778965390463E1  
 1.284352078239609E11   -1.899841093574595E1  -9.644948943481484  -7.668729413247634  -6.759874182376440E1  -7.678578151207072  -9.514924233870384E1  -1.844855310342561E1   2.437286777637588E1  
 1.284474327628362E11   -1.993577387973011E1  -2.458469383607325E1  -7.615243657103023  -9.170740048257230E1  -7.634949592324968  -1.197260059641581E2  -1.974980644789355E1   6.350825195824909  
 1.284596577017115E11   -2.231658019257133E1  -3.564220981363841E1  -7.562633719340592  -1.166152981096609E2  -7.575044933684156  -1.447345787328326E2  -2.268050035731751E1  -6.136174224447267  
 1.284718826405868E11   -2.636067932294793E1  -3.071571388041883E1  -7.521895090366972  -1.415482663457369E2  -7.530047093725947  -1.697069782528594E2  -2.745062327620451E1   3.676929755608669  
 1.284841075794621E11   -2.722851942048644E1   5.684753595190197  -7.521777800649047  -1.664749626209360E2  -7.538437834274610   1.648403338968533E2  -2.640442151748816E1   4.472521142031435E1  
 1.284963325183374E11   -2.295980972378337E1   1.849103611395434E1  -7.581711502398123   1.686743035560353E2  -7.597873261368247   1.398658177751335E2  -2.172876971872977E1   4.745820648528054E1  
 1.285085574572127E11   -2.003297185200878E1   1.043252843604143E1  -7.639505672433539   1.444431400172766E2  -7.663616723814095   1.155599938991533E2  -1.899583653635782E1   3.379307632218417E1  
 1.285207823960880E11   -1.856102499222939E1  -3.344454376367536  -7.675111958028331   1.199526745008891E2  -7.694225351077806   9.083923996998210E1  -1.787486780608615E1   1.638240591240406E1  
 1.285330073349633E11   -1.829948458211063E1  -1.834483924058286E1  -7.671566629132692   9.575867342082532E1  -7.698890092924523   6.623124075039412E1  -1.796248592730674E1  -2.032488629975399  
 1.285452322738386E11   -1.922928239497854E1  -3.169753191738932E1  -7.629227477557324   7.140395843936035E1  -7.655188976418788   4.171883871059885E1  -1.936167698820406E1  -1.962418771433012E1  
 1.285574572127139E11   -2.133421892874047E1  -3.976773456851303E1  -7.579277184350539   4.697949689666636E1  -7.585822604923481   1.680573152580018E1  -2.242215348723170E1  -3.191895419612588E1  
 1.285696821515893E11   -2.418443600755265E1  -3.300353573287265E1  -7.551501945710082   2.218157997283073E1  -7.578526868582718  -8.578377763425287  -2.768478146252747E1  -2.155673639693135E1  
 1.285819070904646E11   -2.441052545093991E1  -8.398300953494006  -7.568121362002066  -2.749531416682743  -7.593198698759114  -3.382315103228693E1  -2.646055854016843E1   2.361629188632371E1  
 1.285941320293399E11   -2.139903893738836E1   1.002683369428094  -7.634897601309961  -2.739314632366544E1  -7.652971823818382  -5.867874247335986E1  -2.165705783299213E1   2.529558645388969E1  
 1.286063569682152E11   -1.900070745514205E1  -4.861531308711993  -7.703975308621669  -5.175879475892752E1  -7.705419440239396  -8.343617050585753E1  -1.900736771382293E1   1.081426807461223E1  
 1.286185819070905E11   -1.775698783250892E1  -1.603102688063662E1  -7.747424079062953  -7.590720507193647E1  -7.756457611882454  -1.080687133700392E2  -1.807384793560172E1  -8.576419220654385  
 1.286308068459658E11   -1.751844606134180E1  -2.789004228137965E1  -7.748157974067371  -1.001025322632567E2  -7.746415358998697  -1.324475491070608E2  -1.843202737257578E1  -2.942231148547209E1  
 1.286430317848411E11   -1.812422483272089E1  -3.721569688886773E1  -7.709169685843914  -1.244140708670139E2  -7.709994042806715  -1.568323302766480E2  -2.035650187228500E1  -5.158309823803253E1  
 1.286552567237164E11   -1.928548175585781E1  -4.056914901013854E1  -7.661019121932179  -1.488276979353621E2  -7.676021246322198   1.782999311136670E2  -2.495313953822020E1  -7.531211221127205E1  
 1.286674816625917E11   -2.003689361338200E1  -3.638078943254488E1  -7.643753966799928  -1.736537883343846E2  -7.636487057917518   1.528639847121050E2  -4.296356669250987E1  -1.246987357152684E2  
 1.286797066014670E11   -1.938438048291589E1  -2.998711341771704E1  -7.662559931841927   1.611905964266392E2  -7.673780804176515   1.278399786419919E2  -2.661962392097918E1   6.583725879656282E1  
 1.286919315403423E11   -1.788044663505975E1  -3.033330017390143E1  -7.732286196306576   1.369047063849737E2  -7.741260984387449   1.030160572029028E2  -2.073946460194115E1   4.142813904075610E1  
 1.287041564792176E11   -1.657517251719056E1  -3.792051770088943E1  -7.806470730621292   1.127259852703103E2  -7.806096888615595   7.870312780698492E1  -1.816053752247460E1   1.856865012290999E1  
 1.287163814180929E11   -1.598077762950782E1  -4.915870371273388E1  -7.842747156619414   8.869709210825786E1  -7.832884352514963   5.427014975827808E1  -1.725064647207165E1  -2.899965345953799  
 1.287286063569682E11   -1.614984096947234E1  -6.166080604005534E1  -7.804077328377154   6.429660487531316E1  -7.797650806486878   3.036117723587547E1  -1.761658970551696E1  -2.329137243708798E1  
 1.287408312958435E11   -1.716369226023430E1  -7.253015594797340E1  -7.729712204252846   4.008649137103128E1  -7.729409708556952   5.703219192453592  -1.941906147516836E1  -4.206255435506160E1  
 1.287530562347188E11   -1.899016951854361E1  -7.896797883370448E1  -7.637773531556939   1.559136153955089E1  -7.631238858990957  -1.892661869342147E1  -2.347785855320643E1  -5.424186527164405E1  
 1.287652811735941E11   -2.115462163805112E1  -7.470147901481434E1  -7.580606593169889  -9.217310131351415  -7.588397764749607  -4.419552381749623E1  -3.029678222693231E1  -2.697871887560664E1  
 1.287775061124694E11   -2.139840769084693E1  -5.948910630324476E1  -7.608533133526803  -3.429703069818833E1  -7.603864793230427  -6.945416510184593E1  -2.517241145665829E1   2.270242273650851E1  
 1.287897310513447E11   -1.951664253292532E1  -5.349994566007523E1  -7.661289465664312  -5.940913799582311E1  -7.673021632593531  -9.421034554071703E1  -2.023277034235219E1   1.606264841006058E1  
 1.288019559902201E11   -1.780727472653099E1  -5.978984850804422E1  -7.722330850643447  -8.360933595742679E1  -7.730782703024812  -1.187307915140881E2  -1.790681365571964E1  -1.567405192525401E-1  
 1.288141809290954E11   -1.697937053784337E1  -7.189524058241308E1  -7.734965522776885  -1.080482574040240E2  -7.752046352724616  -1.431123439042950E2  -1.713951876473355E1  -1.746600866752169E1  
 1.288264058679707E11   -1.719502504486628E1  -8.640460236718482E1  -7.707318559103326  -1.320215364591321E2  -7.707885169493376  -1.670207300115445E2  -1.765233060931364E1  -3.379545716399988E1  
 1.288386308068460E11   -1.864156931174671E1  -1.000723687946425E2  -7.622308040902739  -1.566429371000482E2  -7.619526667250899   1.685738935874249E2  -1.946330979835259E1  -4.557806485009532E1  
 1.288508557457213E11   -2.166667343204846E1  -1.094631930247560E2  -7.544893139363438   1.783043721782738E2  -7.549411094829131   1.436301863228773E2  -2.239393049472989E1  -4.526533875234102E1  
 1.288630806845966E11   -2.654927453492272E1  -9.684624314614052E1  -7.528724927299254   1.530261876363770E2  -7.520897454548033   1.185537742729691E2  -2.361460754463445E1  -2.273970833378483E1  
 1.288753056234719E11   -2.582082135207495E1  -5.272967272822191E1  -7.573601023048079   1.277296479803372E2  -7.576616379335735   9.342162356866378E1  -2.067562610024547E1  -9.006106123292428  
 1.288875305623472E11   -2.124662060224957E1  -4.675467280330918E1  -7.659504487879910   1.031933374009243E2  -7.641536450875067   6.875012166305939E1  -1.788406022887792E1  -1.575586850310787E1  
 1.288997555012225E11   -1.863221013424023E1  -5.722157955929227E1  -7.729792065536293   7.888776981921203E1  -7.737710551480741   4.450787459516874E1  -1.643953764628330E1  -2.994183479928104E1  
 1.289119804400978E11   -1.746409764502804E1  -7.139739345620541E1  -7.755384092962241   5.442834203839548E1  -7.741125192446607   2.076497337768280E1  -1.612045718139444E1  -4.667428304443284E1  
 1.289242053789731E11   -1.750255978571604E1  -8.573484114610037E1  -7.682868980184052   3.041279090190318E1  -7.679793123713490  -3.164745126450427  -1.695443168633039E1  -6.340319525930025E1  
 1.289364303178484E11   -1.860457980958447E1  -9.827315370782169E1  -7.586498975778824   5.631359363573327  -7.581017646247678  -2.784635814006490E1  -1.930640308176453E1  -7.781202400911583E1  
 1.289486552567237E11   -2.098739958473653E1  -1.045385557450141E2  -7.512308035478498  -1.939557682872230E1  -7.500012540949391  -5.255628001911725E1  -2.384713177624283E1  -8.024617260602695E1  
 1.289608801955990E11   -2.361413078367810E1  -9.203663765702004E1  -7.501762277489300  -4.464014135289533E1  -7.482534184337600  -7.795144956489708E1  -2.719321529229756E1  -3.692679089087264E1  
 1.289731051344743E11   -2.246950743518144E1  -7.033159135833161E1  -7.535907505315815  -6.970161160026071E1  -7.526243282083788  -1.030049712227019E2  -2.166820009501802E1  -1.550129691445367E1  
 1.289853300733496E11   -1.958632169212764E1  -6.812089241187678E1  -7.622425736632341  -9.459765054644824E1  -7.631960393179486  -1.276210761346494E2  -1.808048860317730E1  -2.514452165747158E1  
 1.289975550122250E11   -1.769093343761483E1  -7.778136219472356E1  -7.703537965290744  -1.189259127475297E2  -7.694417096065965  -1.516338887647248E2  -1.627132768244165E1  -4.125894180661219E1  
 1.290097799511003E11   -1.688646267365095E1  -9.064881684374628E1  -7.717370982772715  -1.428350434346205E2  -7.704125045444009  -1.755686372487701E2  -1.588976083091665E1  -5.901676018731316E1  
 1.290220048899756E11   -1.702657154567559E1  -1.045923088046589E2  -7.643555070956117  -1.670377715063122E2  -7.634714316001710   1.604577771621159E2  -1.667587933716805E1  -7.608591643749716E1  
 1.290342298288509E11   -1.820620848377417E1  -1.185149609255281E2  -7.536141383792466   1.683916339896720E2  -7.533340662374525   1.356734957645848E2  -1.884647027369649E1  -9.014630286537785E1  
 1.290464547677262E11   -2.081752574508503E1  -1.268304654664072E2  -7.459034216473725   1.434423832094620E2  -7.443805561954093   1.108757044579414E2  -2.258453965731264E1  -9.342634571796224E1  
 1.290586797066015E11   -2.432850394765452E1  -1.169256698773914E2  -7.419395195999627   1.180585498389707E2  -7.414113254073124   8.564029308995033E1  -2.560612118022408E1  -6.450755748170759E1  
 1.290709046454768E11   -2.412658184134293E1  -8.873259572206028E1  -7.453536930596191   9.289636018834678E1  -7.455216169228025   6.047303559296618E1  -2.204553369770635E1  -4.231537070331561E1  
 1.290831295843521E11   -2.102319681451088E1  -8.230029148076815E1  -7.527344173528221   6.813006170904306E1  -7.536872283405072   3.581028811358322E1  -1.886387927696204E1  -4.908137455646647E1  
 1.290953545232274E11   -1.901174830177729E1  -9.003906192460930E1  -7.589225984366648   4.360148825517798E1  -7.603108319246323   1.151252158319173E1  -1.741411759761198E1  -6.464985555809733E1  
 1.291075794621027E11   -1.829272617626296E1  -1.014604501851080E2  -7.588037851606543   1.958466586007184E1  -7.568795159872009  -1.205608903357772E1  -1.741989986717036E1  -8.207160361903415E1  
 1.291198044009780E11   -1.854019201318787E1  -1.135058744349639E2  -7.493380440141033  -5.105031384467001  -7.495855927427340  -3.673203671680474E1  -1.894577976383712E1  -9.851042869113735E1  
 1.291320293398533E11   -2.007277947642360E1  -1.231760986352519E2  -7.427874203492783  -2.998317453982088E1  -7.410084914355525  -6.137228758769417E1  -2.234709630804950E1  -1.095578764944004E2  
 1.291442542787286E11   -2.269607260415335E1  -1.213866377372138E2  -7.392517498823891  -5.481007046068480E1  -7.378911070170941  -8.666054391901602E1  -2.842284489378646E1  -9.320649607204804E1  
 1.291564792176039E11   -2.381163601162935E1  -1.001598164743797E2  -7.410125311864362  -8.011142427868775E1  -7.403528799324119  -1.120578691168649E2  -2.549994544230725E1  -4.049268339626882E1  
 1.291687041564792E11   -2.116989989605227E1  -8.668631883732677E1  -7.480067764488133  -1.050411010527380E2  -7.499301617366158  -1.368724868559693E2  -2.015016085111719E1  -4.235554598905485E1  
 1.291809290953545E11   -1.861968916274186E1  -9.067130698898679E1  -7.591603761782415  -1.296826182662235E2  -7.603085685160656  -1.612941162332292E2  -1.749196110707543E1  -5.866167909659453E1  
 1.291931540342298E11   -1.716333285650794E1  -1.007393394588723E2  -7.629434365286451  -1.536677929448174E2  -7.652212567291802   1.752096177792135E2  -1.651535377442420E1  -7.837722790081004E1  
 1.292053789731051E11   -1.654459421122816E1  -1.127081372132486E2  -7.577288090041483  -1.777262617990528E2  -7.585134287444534   1.512484130615339E2  -1.692799418683486E1  -9.818235918166735E1  
 1.292176039119804E11   -1.684498506582854E1  -1.251239654639733E2  -7.488368616776397   1.578313413274702E2  -7.501640332226446   1.265763201409066E2  -1.865875725960077E1  -1.176073585416932E2  
 1.292298288508557E11   -1.811937799906809E1  -1.336650174714066E2  -7.406221230385119   1.334883073602866E2  -7.416677379002691   1.015493348159211E2  -2.262297147346719E1  -1.359173194372956E2  
 1.292420537897311E11   -1.991885656835190E1  -1.332151526959569E2  -7.369117151259310   1.079945014216591E2  -7.369450730259562   7.663930440149861E1  -3.360524487626450E1  -1.300785449583084E2  
 1.292542787286064E11   -2.048748399344761E1  -1.220948686601155E2  -7.370109920282439   8.293930448094670E1  -7.390744195291052   5.122482786661204E1  -2.696400299615558E1  -2.819341443976700E1  
 1.292665036674817E11   -1.904625797392292E1  -1.146015697868019E2  -7.464809798630665   5.774054351148027E1  -7.483061032766778   2.660748580766613E1  -2.031804409531260E1  -4.230320559699213E1  
 1.292787286063570E11   -1.723280049286165E1  -1.180359153634444E2  -7.547699736627028   3.357910443345119E1  -7.573739195682183   2.050629632144612  -1.749233655722745E1  -6.296655733261100E1  
 1.292909535452323E11   -1.601400691606415E1  -1.273759333889434E2  -7.577409050395723   9.491042253569509  -7.590587703165829  -2.230013277640774E1  -1.647051514772774E1  -8.445189729899109E1  
 1.293031784841076E11   -1.551042123688915E1  -1.393876375142983E2  -7.528906899907528  -1.448664594284601E1  -7.548917187138335  -4.595344277438242E1  -1.672876980836641E1  -1.055832830082494E2  
 1.293154034229829E11   -1.583889376283973E1  -1.525181520509217E2  -7.458596049419886  -3.891571238523989E1  -7.482414933641525  -7.043222049199878E1  -1.821999785894587E1  -1.267387653505396E2  
 1.293276283618582E11   -1.701725179145900E1  -1.629430874534008E2  -7.379450116636425  -6.363621267728059E1  -7.391911872823313  -9.519090867031775E1  -2.157128508640430E1  -1.479242409923434E2  
 1.293398533007335E11   -1.882302039304103E1  -1.676392731416270E2  -7.321829009083971  -8.893515916059968E1  -7.349260861623588  -1.202753624178312E2  -2.989958706608152E1  -1.655231164629978E2  
 1.293520782396088E11   -2.036880064411191E1  -1.631386414295528E2  -7.323820209846544  -1.138626914222292E2  -7.345549983680130  -1.452998710496571E2  -3.296279777863121E1  -3.128511781800953E1  
 1.293643031784841E11   -2.027699866640600E1  -1.555342793985367E2  -7.359532479533434  -1.389922140222781E2  -7.385941344953355  -1.700980751008096E2  -2.339148865957390E1  -4.596589715747483E1  
 1.293765281173594E11   -1.935357017031950E1  -1.542703987713385E2  -7.396098067064862  -1.630786839513049E2  -7.425243195731326   1.654408696612102E2  -2.037875291368724E1  -6.639543873586914E1  
 1.293887530562347E11   -1.859977177065826E1  -1.597463356280763E2  -7.358479535334076   1.722387848767171E2  -7.385897950968876   1.413000769749446E2  -1.968468130797049E1  -8.523494774773664E1  
 1.294009779951100E11   -1.849204803528920E1  -1.695917189471051E2  -7.317610032378228   1.476583223740989E2  -7.337566255702953   1.163770084228383E2  -2.048226306908685E1  -1.014635059424263E2  
 1.294132029339853E11   -1.943520806320612E1   1.797105337464891E2  -7.268909852313150   1.231196121139464E2  -7.299610033788158   9.125448194369578E1  -2.314730225908821E1  -1.128589907065656E2  
 1.294254278728606E11   -2.158091066464345E1   1.746231078315408E2  -7.250631841827387   9.791759270423084E1  -7.278263084090223   6.629732557616484E1  -2.788277614049451E1  -1.015581755416658E2  
 1.294376528117360E11   -2.393817624095591E1  -1.757055672676454E2  -7.280153032416826   7.271047362376706E1  -7.301801019845070   4.094773625498495E1  -2.628236275591705E1  -5.465901702052522E1  
 1.294498777506113E11   -2.330666644471928E1  -1.568816829164636E2  -7.358049239143044   4.783420499997415E1  -7.378411177801636   1.622738956863194E1  -2.099657635832161E1  -5.292000669601137E1  
 1.294621026894866E11   -2.095677711592602E1  -1.535333261415333E2  -7.458072730910826   2.380686491198351E1  -7.484033575411057  -8.162492575351193  -1.815193858287163E1  -6.701208752105015E1  
 1.294743276283619E11   -1.927772367508702E1  -1.606466805844713E2  -7.477971681769937  -2.930274437935683E-1  -7.500104125727338  -3.223676934954828E1  -1.708089782733181E1  -8.335476925344715E1  
 1.294865525672372E11   -1.835933786006201E1  -1.733521620278191E2  -7.400799538278235  -2.460917715426390E1  -7.433908627146050  -5.673396669085576E1  -1.705763515545828E1  -9.795230688078742E1  
 1.294987775061125E11   -1.854324719736944E1   1.701693464352603E2  -7.342798010990498  -4.895274291761975E1  -7.367567140393664  -8.115454798562504E1  -1.791468812683748E1  -1.103432955589150E2  
 1.295110024449878E11   -2.015486150036211E1   1.531190373923928E2  -7.282893593008309  -7.387225268498580E1  -7.304203861544491  -1.060296795305111E2  -1.963347792933441E1  -1.170217051448638E2  
 1.295232273838631E11   -2.406375105204788E1   1.395266949949894E2  -7.259937437385216  -9.899631745917453E1  -7.279513299206090  -1.312653913767787E2  -2.148127023536305E1  -1.108473650818103E2  
 1.295354523227384E11   -3.238867982001305E1   1.541367770693243E2  -7.290052403721118  -1.239963773392155E2  -7.310853333871743  -1.564601040263191E2  -2.095888492343885E1  -9.654452548909202E1  
 1.295476772616137E11   -2.853924043067721E1  -1.302290279903922E2  -7.365807225113773  -1.489099183721020E2  -7.402323094222512   1.787431628064342E2  -1.853547048581680E1  -9.551442250141875E1  
 1.295599022004890E11   -2.248864758535261E1  -1.325321519059322E2  -7.440424862563410  -1.732062942486712E2  -7.479904495896951   1.543065030370773E2  -1.685308101947165E1  -1.063152764139864E2  
 1.295721271393643E11   -1.941414247665659E1  -1.468621439394155E2  -7.447822323281446   1.626427062627051E2  -7.475864258198505   1.299376482543533E2  -1.624831641997770E1  -1.212496518551690E2  
 1.295843520782396E11   -1.810479355546138E1  -1.644127856213175E2  -7.405082629443018   1.384045534903648E2  -7.439480830215548   1.058137390335096E2  -1.660447322976037E1  -1.375686153026813E2  
 1.295965770171149E11   -1.814049438255435E1   1.786384724806577E2  -7.366697909596647   1.141610254609453E2  -7.384610061598077   8.119141497755442E1  -1.811519661208665E1  -1.537055632927678E2  
 1.296088019559902E11   -1.937070394421352E1   1.651872304222827E2  -7.312706339738877   8.982880631578017E1  -7.329847280151115   5.611398108984057E1  -2.135326983398673E1  -1.668099220350475E2  
 1.296210268948655E11   -2.181639531458493E1   1.593191254597224E2  -7.278207696548552   6.477595310080214E1  -7.309425922899635   3.085545650332549E1  -2.764574354877658E1  -1.594380846766655E2  
 1.296332518337408E11   -2.409275786923380E1   1.698782467216763E2  -7.309647174382518   3.973948936865271E1  -7.352991624635163   5.947411080815191  -2.693564336448162E1  -9.935679315862679E1  
 1.296454767726161E11   -2.343478463861171E1  -1.719152629658350E2  -7.394229435776719   1.498661985028442E1  -7.412748713198184  -1.884327948540180E1  -2.124963124191845E1  -9.830629014608026E1  
 1.296577017114914E11   -2.088441938797806E1  -1.671484790628588E2  -7.395225417764954  -8.941843713031247  -7.426564917581219  -4.323620998872572E1  -1.873268540558341E1  -1.126806009126006E2  
 1.296699266503667E11   -1.878562354247242E1  -1.756269646249619E2  -7.398590694279171  -3.338354584037208E1  -7.397073227666968  -6.775840055909623E1  -1.779891300749567E1  -1.294353297860844E2  
 1.296821515892421E11   -1.785059636281431E1   1.702697794735628E2  -7.359295702587080  -5.745589722327804E1  -7.374735665438279  -9.248508864708181E1  -1.800833569795969E1  -1.470593468929889E2  
 1.296943765281174E11   -1.811725401869012E1   1.557078202379229E2  -7.315575899351673  -8.223110327376705E1  -7.327681660220718  -1.172227912985724E2  -1.966817486356331E1  -1.643385350099623E2  
 1.297066014669927E11   -1.950383288228105E1   1.436763198962598E2  -7.286035891439703  -1.069909646619692E2  -7.311752924981490  -1.422237238327461E2  -2.343488696229538E1  -1.762982227591223E2  
 1.297188264058680E11   -2.185467088788186E1   1.397735591336466E2  -7.291009059232908  -1.316783920254721E2  -7.318990405418629  -1.674223370800509E2  -2.994932948572454E1  -1.526579902836267E2  
 1.297310513447433E11   -2.384658794328682E1   1.497912938209611E2  -7.347154318594612  -1.564806537975170E2  -7.378446164425867   1.679427852582384E2  -2.573723164268473E1  -1.065172756005495E2  
 1.297432762836186E11   -2.340765834265369E1   1.670326891236348E2  -7.366881737250036   1.793110204209259E2  -7.396300269063270   1.435754698389640E2  -2.143796349382793E1  -1.113159842592393E2  
 1.297555012224939E11   -2.087661970242400E1   1.713082823073758E2  -7.352141929811262   1.549834665416751E2  -7.377845826389038   1.186447584587232E2  -1.932075309894492E1  -1.243525514801647E2  
 1.297677261613692E11   -1.893677395613007E1   1.620081528059877E2  -7.337230819032764   1.301197971963484E2  -7.343504390723891   9.424099284454744E1  -1.843281611578239E1  -1.406364242380880E2  
 1.297799511002445E11   -1.819745411753811E1   1.478340233109441E2  -7.321001416251968   1.055467431862970E2  -7.333240155981536   6.957880342616336E1  -1.877443203736875E1  -1.577622680782039E2  
 1.297921760391198E11   -1.861091628569157E1   1.328455812769179E2  -7.284549613856731   8.076334075707274E1  -7.292998855273988   4.493333109481196E1  -2.058663768778353E1  -1.742164636634421E2  
 1.298044009779951E11   -2.019592957441979E1   1.203269487731506E2  -7.256260463159340   5.580276298823613E1  -7.276105216234527   2.004719592369109E1  -2.473597165335944E1   1.777208489258226E2  
 1.298166259168704E11   -2.292066343015142E1   1.152688353752275E2  -7.283494073944168   3.094576158768362E1  -7.304338166869957  -5.008700892926772  -2.934940423369253E1  -1.494494622918102E2  
 1.298288508557457E11   -2.593538344963767E1   1.262146864315177E2  -7.310493022313786   6.602716954113948  -7.333690546162160  -2.947043939003362E1  -2.484023279103344E1  -1.202882871423796E2  
 1.298410757946210E11   -2.532319783906493E1   1.519843198222054E2  -7.285606361417269  -1.795460060399046E1  -7.310402961991302  -5.404848288633907E1  -2.147252098616246E1  -1.263257979526734E2  
 1.298533007334963E11   -2.215196938170060E1   1.559115012556767E2  -7.274813570496448  -4.289014667830414E1  -7.290243856352425  -7.862919303799697E1  -1.972778398673330E1  -1.392342320195007E2  
 1.298655256723716E11   -2.024230864666850E1   1.449911808524950E2  -7.256282560015447  -6.746633147775273E1  -7.279968046781409  -1.031038053619426E2  -1.922085568386606E1  -1.546645350018731E2  
 1.298777506112470E11   -1.986622815539651E1   1.296287168045507E2  -7.242117753011987  -9.251984902270024E1  -7.251075899246394  -1.279345820649560E2  -1.996025970031044E1  -1.699011599563939E2  
 1.298899755501223E11   -2.090731029500364E1   1.140079805533245E2  -7.214703471338222  -1.172423762200420E2  -7.235619509093534  -1.526223490488876E2  -2.236769885798348E1   1.791284791231653E2  
 1.299022004889976E11   -2.365885703078284E1   1.030192307292379E2  -7.220859378135192  -1.424955954004009E2  -7.242929453488833  -1.776993341559429E2  -2.612364087703423E1  -1.716494001312188E2  
 1.299144254278729E11   -2.860673785549665E1   1.106845593901822E2  -7.278138154927883  -1.675709174384736E2  -7.307869135557188   1.575997870100385E2  -2.491092307097000E1  -1.398047907593093E2  
 1.299266503667482E11   -2.919747317915237E1   1.637132802322264E2  -7.328693120784713   1.679998591833164E2  -7.352511427267283   1.333651313876936E2  -2.101469234463364E1  -1.391019954664002E2  
 1.299388753056235E11   -2.308783684139786E1   1.753252456893259E2  -7.335370968412075   1.436134909444277E2  -7.371328639332726   1.089109417171369E2  -1.870097497634182E1  -1.513175786418395E2  
 1.299511002444988E11   -1.951076169979294E1   1.628845312367760E2  -7.362480078098510   1.190318436658166E2  -7.378758595021696   8.438729341531686E1  -1.745999225280069E1  -1.679200239592666E2  
 1.299633251833741E11   -1.778311953147230E1   1.468033929846592E2  -7.377081046990806   9.420407179894201E1  -7.387801430998930   6.019363111764445E1  -1.721479761156015E1   1.728961595635787E2  
 1.299755501222494E11   -1.722614198249598E1   1.300530433829583E2  -7.358341618978056   6.983046787582096E1  -7.376671407060110   3.604546729407296E1  -1.796887633771244E1   1.521379104335623E2  
 1.299877750611247E11   -1.753610139040836E1   1.149302404091026E2  -7.332181020963808   4.514779206992892E1  -7.345823667152729   1.142110428306657E1  -2.009440487733987E1   1.303993736789821E2  
 1.300000000000000E11   -1.871240264074406E1   1.030143391606211E2  -7.305923909331498   2.035269142888066E1  -7.328053906803997  -1.276757167328315E1  -2.442802500475382E1   1.103045547328690E2  
 1.300122249388753E11   -2.064506096158346E1   9.639254414065290E1  -7.274444574063900  -4.056399738905785  -7.297959390976318  -3.708368115413209E1  -3.384606814890509E1   1.043827182871148E2  
 1.300244498777506E11   -2.256682065754288E1   1.019162033049645E2  -7.228207426318821  -2.888917858238393E1  -7.248440103718088  -6.139958653094153E1  -3.450789251443615E1  -1.404277648101167E2  
 1.300366748166259E11   -2.234424266797481E1   1.140763766491364E2  -7.203275211555897  -5.411843703764219E1  -7.214279603402240  -8.640782463612797E1  -2.634580175577630E1  -1.471340491256636E2  
 1.300488997555012E11   -2.064210987193052E1   1.147526592207840E2  -7.201734305145760  -7.891999226033336E1  -7.203008618122370  -1.112494237527175E2  -2.346765389671269E1  -1.663902439020459E2  
 1.300611246943765E11   -1.946125454581957E1   1.070126167693164E2  -7.202727413241414  -1.038985186081963E2  -7.221282397454654  -1.359067892001094E2  -2.271115682188245E1   1.719115889584593E2  
 1.300733496332518E11   -1.919166878494056E1   9.598867243891401E1  -7.218406977732959  -1.286390328717832E2  -7.235220074500639  -1.603175994890927E2  -2.409979221787281E1   1.493206781962129E2  
 1.300855745721271E11   -1.969116867493001E1   8.480326501977960E1  -7.248493707494248  -1.532945531107149E2  -7.273287323371696   1.748469061607824E2  -2.828525168473653E1   1.305288670403167E2  
 1.300977995110024E11   -2.099923843477200E1   7.573500308042188E1  -7.271759548003550  -1.779285174602138E2  -7.297259131972044   1.505022333143768E2  -3.866155161486327E1   1.446238286712416E2  
 1.301100244498778E11   -2.319283616804644E1   7.395415259156302E1  -7.227456442014056   1.576863010808196E2  -7.255798229857858   1.258697300165387E2  -3.332397504866628E1  -1.257185547049030E2  
 1.301222493887531E11   -2.468155428191741E1   8.516779926542647E1  -7.185082236537462   1.327234389851973E2  -7.232060988546458   1.015905065034470E2  -2.649928639053703E1  -1.313266802963561E2  
 1.301344743276284E11   -2.341938424867177E1   9.475243002207105E1  -7.178592935101178   1.078064346946545E2  -7.213257421069661   7.695891554281901E1  -2.340421396996281E1  -1.480786253437940E2  
 1.301466992665037E11   -2.178946840539347E1   9.122499602528299E1  -7.174343195103708   8.301864660566194E1  -7.210865753543097   5.204982078464663E1  -2.222890131519287E1  -1.666189908694356E2  
 1.301589242053790E11   -2.102286139738320E1   8.003407756431024E1  -7.180336775145947   5.814932538915846E1  -7.212111589434239   2.743393706831133E1  -2.266331087966531E1   1.752612515302601E2  
 1.301711491442543E11   -2.134525836961545E1   6.603044814456185E1  -7.199327770542626   3.340932223130233E1  -7.234848571788074   2.530105860119602  -2.504096862805049E1   1.631015656209372E2  
 1.301833740831296E11   -2.299705287885052E1   5.048152799197390E1  -7.226609551658655   8.448150670044463  -7.272305173749181  -2.176104863302541E1  -2.834894792664844E1   1.743945124879856E2  
 1.301955990220049E11   -2.700210988078958E1   3.643665092772217E1  -7.227947908580795  -1.565926705181530E1  -7.273975434224702  -4.629092278958041E1  -2.702752241575782E1  -1.603879074588917E2  
 1.302078239608802E11   -3.690039173029550E1   5.883998200986954E1  -7.204074016139808  -4.073586049538776E1  -7.240328744711333  -7.093872778174332E1  -2.375989813613511E1  -1.574927191127118E2  
 1.302200488997555E11   -3.005449245710394E1   1.345117870560328E2  -7.195154489060728  -6.528663507098072E1  -7.224817608904850  -9.549905274410168E1  -2.141681582438742E1  -1.671852392916116E2  
 1.302322738386308E11   -2.432768957128257E1   1.257600790692691E2  -7.197446852421638  -8.979277911950280E1  -7.227343021954294  -1.205038301381938E2  -2.009908689060474E1   1.777125218955709E2  
 1.302444987775061E11   -2.194098614462845E1   1.094290068934286E2  -7.196175196653345  -1.143559004854641E2  -7.225401143167977  -1.452547687447585E2  -2.008889920227053E1   1.603635941014426E2  
 1.302567237163814E11   -2.128336482127449E1   9.240776212071310E1  -7.180111055347596  -1.388446368221309E2  -7.227979641639033  -1.700030794657859E2  -2.140321322584563E1   1.434583304128737E2  
 1.302689486552567E11   -2.200527123948373E1   7.625871829748191E1  -7.186220037335265  -1.638706899094408E2  -7.226807453580125   1.653909214452025E2  -2.467411512579557E1   1.339975955316433E2  
 1.302811735941320E11   -2.456874966085295E1   6.385793701572440E1  -7.196635963345301   1.721483817383216E2  -7.229493546108973   1.404317882260531E2  -2.887886088854723E1   1.551459670005227E2  
 1.302933985330073E11   -2.994822141637799E1   7.446018300445972E1  -7.162884357017279   1.475387159987339E2  -7.210023384016346   1.156662427542296E2  -2.603736983261454E1  -1.714839537686492E2  
 1.303056234718826E11   -2.837317599862786E1   1.283477962343348E2  -7.186917123793958   1.226192830094711E2  -7.213718398181746   9.051410508974566E1  -2.162880511510223E1  -1.725561082691041E2  
 1.303178484107580E11   -2.258200331070162E1   1.319584317907021E2  -7.224508108905341   9.752614874716213E1  -7.256852588333945   6.576754913788595E1  -1.889906550383739E1   1.728109025762516E2  
 1.303300733496333E11   -1.935202969978060E1   1.192099624377343E2  -7.272024388938925   7.315020234561384E1  -7.313866012116255   4.098580723635079E1  -1.757701196109094E1   1.534100117806336E2  
 1.303422982885086E11   -1.762927040127115E1   1.034789747375417E2  -7.316816918674495   4.887919063133452E1  -7.362874183878660   1.651124657023051E1  -1.731334997222811E1   1.320565788513858E2  
 1.303545232273839E11   -1.694992828673145E1   8.756330279041454E1  -7.344735909672386   2.470481861687800E1  -7.397984874169964  -7.796161387913661  -1.833528630612757E1   1.102344642780421E2  
 1.303667481662592E11   -1.720536840830913E1   7.210835481284519E1  -7.313717450523503   6.794829081442545E-1  -7.377180504354609  -3.189874443258363E1  -2.074834811856793E1   8.938393380279508E1  
 1.303789731051345E11   -1.846984209047808E1   6.014634957234181E1  -7.230731476696432  -2.350532442981697E1  -7.282641738964988  -5.659145039243012E1  -2.533622391239208E1   6.849373621747539E1  
 1.303911980440098E11   -2.041357391474474E1   5.695276309957444E1  -7.142836019052309  -4.825883781164661E1  -7.206521592934681  -8.146650370361664E1  -4.087631906163299E1   5.702459474094834E1  
 1.304034229828851E11   -2.158827516372840E1   6.644427341092863E1  -7.102872958743919  -7.338156610234231E1  -7.180888255271871  -1.067167264704059E2  -2.840125929245664E1  -1.621246456026415E2  
 1.304156479217604E11   -2.041632428234003E1   7.598060980601579E1  -7.126413790271859  -9.828173905286650E1  -7.193117796738745  -1.316923754918568E2  -2.199443545657784E1   1.761264676032072E2  
 1.304278728606357E11   -1.848996143803081E1   7.380939469149003E1  -7.183912109683854  -1.228918376144355E2  -7.256877964731593  -1.567932605638037E2  -1.938130087766283E1   1.531312424667137E2  
 1.304400977995110E11   -1.709316853340695E1   6.393231394758587E1  -7.253226455785420  -1.477551933272204E2  -7.320634180380964   1.786069688787687E2  -1.858086360550125E1   1.304924749061881E2  
 1.304523227383863E11   -1.651831562354117E1   5.030763782211083E1  -7.298029156846089  -1.717848447680171E2  -7.371182365418694   1.544127953284960E2  -1.912438727871775E1   1.104630045698223E2  
 1.304645476772616E11   -1.689978144349136E1   3.573216537716544E1  -7.265184308267268   1.642777483601771E2  -7.337823192233281   1.302899217503927E2  -2.070519743712767E1   9.345678915129139E1  
 1.304767726161369E11   -1.831701452317855E1   2.267974119896880E1  -7.194073468314232   1.398747834732689E2  -7.252410137960779   1.057351040921750E2  -2.389579545908577E1   8.127383118167667E1  
 1.304889975550122E11   -2.085949474063101E1   1.609773866174206E1  -7.118040038222731   1.152912396480532E2  -7.191738619617574   8.095187110631568E1  -2.901826541775946E1   9.137672513741711E1  
 1.305012224938875E11   -2.384193610265952E1   2.514458612157491E1  -7.084361223342596   9.019121800183893E1  -7.155972623972744   5.533246619695867E1  -2.806701769474948E1   1.357515646842827E2  
 1.305134474327628E11   -2.362273890726454E1   4.753689963362602E1  -7.091673429979942   6.532938836878311E1  -7.164693730446529   3.036342541493934E1  -2.330034545133598E1   1.366581012886720E2  
 1.305256723716381E11   -2.110332267367094E1   5.312027153598203E1  -7.136231541286821   4.062513803610018E1  -7.202880368010814   5.378832015345074  -2.085440876795682E1   1.207754926925745E2  
 1.305378973105134E11   -1.920577813715572E1   4.561563593401543E1  -7.207161470740278   1.587396517269391E1  -7.256573776880570  -1.908022763817506E1  -2.037839179438358E1   1.013514263694476E2  
 1.305501222493888E11   -1.852874016773546E1   3.278408881413073E1  -7.219484226221733  -8.141433083006136  -7.277150351187439  -4.321023365354704E1  -2.139115171609512E1   8.303095431681402E1  
 1.305623471882641E11   -1.899895296016038E1   1.989182021197443E1  -7.176187239904342  -3.242576022619781E1  -7.236805143557661  -6.792390593504531E1  -2.409215403862360E1   6.747258485275656E1  
 1.305745721271394E11   -2.067478162484617E1   1.085599136133487E1  -7.109436214365296  -5.727117015362452E1  -7.177434071698809  -9.244018478161011E1  -3.004825316911965E1   6.435265066699736E1  
 1.305867970660147E11   -2.314850585814724E1   1.230127146300715E1  -7.083461435185967  -8.236546397379445E1  -7.140216355187312  -1.175826899563106E2  -3.266456639801555E1   1.379005566033891E2  
 1.305990220048900E11   -2.420061682722375E1   3.043881571972374E1  -7.081542014454238  -1.071009918553868E2  -7.148751932064731  -1.426078667313787E2  -2.467076298049479E1   1.480289900642734E2  
 1.306112469437653E11   -2.208160545985364E1   4.324625068802632E1  -7.139539041115750  -1.320322718907097E2  -7.174208616679326  -1.675214125976156E2  -2.069587539378241E1   1.324635428178323E2  
 1.306234718826406E11   -1.964181905713830E1   3.964307436771014E1  -7.194023145809051  -1.569306882613869E2  -7.245095792291823   1.679075249747563E2  -1.899837620681360E1   1.134326252243232E2  
 1.306356968215159E11   -1.821214243078934E1   2.788980861484245E1  -7.245128714330646   1.788575596782630E2  -7.276950673013454   1.436197645139392E2  -1.867939784079695E1   9.461738560059990E1  
 1.306479217603912E11   -1.793540006634094E1   1.324517305983174E1  -7.232319142308048   1.545022790247664E2  -7.260993569280609   1.192463120367871E2  -1.948780462885443E1   7.784606753017610E1  
 1.306601466992665E11   -1.882585361555432E1  -1.181845933567252  -7.166703421225169   1.298085986230418E2  -7.198656750924493   9.489552138892495E1  -2.161544831118900E1   6.580945281688398E1  
 1.306723716381418E11   -2.109733311390958E1  -1.135426630163018E1  -7.116827809947311   1.049297680317285E2  -7.145191265098076   7.007249988324445E1  -2.523649631499289E1   6.902575675773072E1  
 1.306845965770171E11   -2.476598792996170E1  -6.866709182969627  -7.091530857402935   7.948029523670820E1  -7.138011985305119   4.527771357151910E1  -2.588747386763426E1   9.999892653847465E1  
 1.306968215158924E11   -2.558814321833829E1   2.563682607457099E1  -7.146471603974947   5.442977531922657E1  -7.180975051655742   2.014045948268968E1  -2.180358907310477E1   1.112116705290551E2  
 1.307090464547677E11   -2.166836835969140E1   3.802070890480531E1  -7.243240037748333   2.965238657188768E1  -7.267105405795998  -4.345740986830147  -1.876140718416121E1   1.008093622117680E2  
 1.307212713936430E11   -1.861175710689665E1   2.971495255484929E1  -7.343315559628207   5.259091024050199  -7.360405381332735  -2.890160482154261E1  -1.712508025198293E1   8.549286332273198E1  
 1.307334963325183E11   -1.706034378876106E1   1.478349002158233E1  -7.358237256650490  -1.895559519993582E1  -7.400574769075566  -5.285042381816790E1  -1.653719007074851E1   6.844948699039260E1  
 1.307457212713937E11   -1.658196933632608E1  -2.083379473096489  -7.326318825252653  -4.320438881460159E1  -7.369322378068479  -7.667607740169935E1  -1.678907234856839E1   5.166685585840946E1  
 1.307579462102690E11   -1.703342760348937E1  -1.919740984707766E1  -7.240839525657134  -6.748929069538413E1  -7.287519731855334  -1.007780835306335E2  -1.801714691615890E1   3.607630828676226E1  
 1.307701711491443E11   -1.860891967769902E1  -3.568668595867731E1  -7.164817025556555  -9.183847527139611E1  -7.205686175334664  -1.256591243489835E2  -2.027992272355388E1   2.519748245592797E1  
 1.307823960880196E11   -2.166700253446910E1  -4.792713541463057E1  -7.105433536547044  -1.171430421423486E2  -7.146983546596343  -1.501934522069842E2  -2.342811751554335E1   2.686845076448032E1  
 1.307946210268949E11   -2.684806921820056E1  -4.394211051328289E1  -7.096570124335180  -1.425184187087919E2  -7.145888448578676  -1.750930427910677E2  -2.449350260105453E1   4.586594305880828E1  
 1.308068459657702E11   -2.847029112742448E1   2.052286408112647E-1  -7.134969915272666  -1.674904376316525E2  -7.187104675417334   1.599759016837433E2  -2.250878204090055E1   5.458358197390989E1  
 1.308190709046455E11   -2.413716551041409E1   1.206662709244723E1  -7.165777073592264   1.676986073870785E2  -7.208476125288001   1.355699426321204E2  -2.073628817964541E1   4.806779638698843E1  
 1.308312958435208E11   -2.178740928904897E1   2.983236940945468  -7.159886793820840   1.432825129087489E2  -7.202380894945478   1.111967762355214E2  -2.008485678639993E1   3.441262210232921E1  
 1.308435207823961E11   -2.125873882322013E1  -9.978668835836617  -7.128127706825008   1.190733822121201E2  -7.168395921735860   8.658867292004180E1  -2.085591342936043E1   1.909385807389337E1  
 1.308557457212714E11   -2.233182388232851E1  -2.222952863168965E1  -7.073716091891022   9.400200738603712E1  -7.115406011319516   6.207076302480780E1  -2.361671750423475E1   6.209089172801633  
 1.308679706601467E11   -2.536930178411357E1  -2.712010357184430E1  -7.054353013595463   6.890753031621054E1  -7.102283705929783   3.687452842036134E1  -2.953820249880431E1   1.239913911776418E1  
 1.308801955990220E11   -2.864714465565915E1  -4.833845430237044E-1  -7.083221797518793   4.349481769447868E1  -7.121133275416188   1.206603074631606E1  -2.845118349302483E1   7.464220175374045E1  
 1.308924205378973E11   -2.483841777541449E1   2.942231453576629E1  -7.156595735407588   1.845540050440397E1  -7.187990839054740  -1.271340071671421E1  -2.214993061657131E1   7.709099133828690E1  
 1.309046454767726E11   -2.073384615257831E1   2.660466303683526E1  -7.248419310781824  -5.842456486328603  -7.276509713159608  -3.737116297750838E1  -1.891570374148744E1   6.169148150143803E1  
 1.309168704156479E11   -1.841299363578634E1   1.462168154172975E1  -7.285787942767883  -3.015290602276519E1  -7.333714951455304  -6.153876573028906E1  -1.722327043670322E1   4.313928771535065E1  
 1.309290953545232E11   -1.719114787617488E1  -2.812160984096076E-1  -7.290020214870094  -5.415633894869422E1  -7.347700047430189  -8.572233616194566E1  -1.670841862308324E1   2.281264349473673E1  
 1.309413202933985E11   -1.699609852495120E1  -1.487182028537638E1  -7.251327422900419  -7.828535573793160E1  -7.308213741820708  -1.098414925587699E2  -1.736385304563051E1   1.986608343635145  
 1.309535452322738E11   -1.767108806281691E1  -2.779767963310964E1  -7.180050373592884  -1.030247115569669E2  -7.222752017197464  -1.343572598361380E2  -1.929107020676116E1  -1.904503699151116E1  
 1.309657701711491E11   -1.915422994987091E1  -3.601229532881863E1  -7.106839581528756  -1.279122232610349E2  -7.161221519500856  -1.588556072579857E2  -2.361160652135716E1  -3.836867470889566E1  
 1.309779951100244E11   -2.100670985264324E1  -3.374978772223434E1  -7.094020582127022  -1.528611422684071E2  -7.125595083082575   1.758181707858010E2  -3.513920050251114E1  -3.388485902410898E1  
 1.309902200488998E11   -2.118626941475440E1  -2.232644906857648E1  -7.110327756029450  -1.777522587495723E2  -7.158648399386696   1.508195618873235E2  -2.823487369761640E1   7.041837395651466E1  
 1.310024449877751E11   -1.959778621746089E1  -1.781424114999950E1  -7.152620119710458   1.575301017490365E2  -7.203237163036112   1.258897807937967E2  -2.179966868743507E1   5.631585770729027E1  
 1.310146699266504E11   -1.799097734077905E1  -2.325123719296234E1  -7.195864474553392   1.328654142660132E2  -7.256310627344628   1.018309605149114E2  -1.904598490425012E1   3.639773402223811E1  
 1.310268948655257E11   -1.701882613130048E1  -3.383136675579035E1  -7.213028045289309   1.086342188747834E2  -7.265002800139849   7.732528791807341E1  -1.811518123404951E1   1.526390906561884E1  
 1.310391198044010E11   -1.692426103039640E1  -4.696781920032676E1  -7.179472280599560   8.444707466046033E1  -7.246805087084279   5.315636626679200E1  -1.851406518766994E1  -5.794656228906690  
 1.310513447432763E11   -1.766497227280389E1  -5.926870844913574E1  -7.128557532344753   5.979117756382263E1  -7.181771180954248   2.844658810544069E1  -2.042428173119192E1  -2.600296212681012E1  
 1.310635696821516E11   -1.927248091099356E1  -6.807015105599770E1  -7.078662921593680   3.530355926733505E1  -7.116693142489278   3.720117974406196  -2.462460130820202E1  -4.275246946911724E1  
 1.310757946210269E11   -2.135475687497813E1  -6.856647621143111E1  -7.042664830679545   1.039198036220773E1  -7.099540134308500  -2.131455290893614E1  -3.456224740264391E1  -3.036839478178100E1  
 1.310880195599022E11   -2.254136792895300E1  -5.886449808246884E1  -7.052641550639146  -1.429283225121201E1  -7.098078825377653  -4.638751476395350E1  -2.923605964191182E1   5.645672620580388E1  
 1.311002444987775E11   -2.165695029482915E1  -5.080564572538078E1  -7.056465967441553  -3.940138187283767E1  -7.091739839235149  -7.094179008018479E1  -2.315307776924122E1   4.664555601766413E1  
 1.311124694376528E11   -2.023014588280011E1  -5.369279198653283E1  -7.075727762386038  -6.370878321272237E1  -7.123827764058472  -9.531228789489779E1  -2.069858715010700E1   2.976093369811669E1  
 1.311246943765281E11   -1.955817240145065E1  -6.439804516383113E1  -7.075939763354307  -8.837542629360253E1  -7.109056108379606  -1.202279992179855E2  -2.021587887927091E1   1.240676831080110E1  
 1.311369193154034E11   -1.996900493055584E1  -7.853444700271477E1  -7.044544945752561  -1.129784009753019E2  -7.089533669981853  -1.449212701889907E2  -2.117273439470344E1  -1.872432152912310  
 1.311491442542787E11   -2.190605012621045E1  -9.302264482231846E1  -7.027585166778323  -1.376072358721557E2  -7.053750659763651  -1.696094821569035E2  -2.375153295558030E1  -7.371382992746144  
 1.311613691931540E11   -2.636085152669497E1  -1.008042385605842E2  -7.009751737608636  -1.628489505998196E2  -7.044378871876842   1.655174253183181E2  -2.623163956750722E1   1.161189172019554E1  
 1.311735941320293E11   -3.293688617310573E1  -5.814021224942700E1  -7.027219067378226   1.724782337464857E2  -7.060267126831584   1.403769569402648E2  -2.352367837582771E1   3.390077869277724E1  
 1.311858190709047E11   -2.618194644337730E1  -1.688717159335765E1  -7.077753413356700   1.472669563533337E2  -7.100620701503260   1.158687765332351E2  -2.000435209825419E1   3.124142045673411E1  
 1.311980440097800E11   -2.156419924865908E1  -2.524359233937132E1  -7.128775994596658   1.227274462663400E2  -7.171214911938174   9.151273570721156E1  -1.783207942615475E1   1.823300887424122E1  
 1.312102689486553E11   -1.931872084020811E1  -4.092120895124934E1  -7.180081551896212   9.853734472748388E1  -7.213891176749140   6.658895831483461E1  -1.698099999586900E1   2.102807533913530  
 1.312224938875306E11   -1.853013325356306E1  -5.840677338207951E1  -7.167978698321087   7.442544203497364E1  -7.196782156661792   4.219343133939015E1  -1.715023021775640E1  -1.475873819276830E1  
 1.312347188264059E11   -1.896889481982484E1  -7.591870480671851E1  -7.125022584269193   5.012442939732660E1  -7.151964342437240   1.805538614827936E1  -1.849446750093011E1  -3.020433138286079E1  
 1.312469437652812E11   -2.088710804732019E1  -9.095024531587460E1  -7.075268241393494   2.551994762386637E1  -7.092256984540754  -6.459472751465313  -2.143444275974894E1  -4.019850029401970E1  
 1.312591687041565E11   -2.454365721125852E1  -9.657556955055169E1  -7.015902069660799   7.541634677787764E-1  -7.037875558851488  -3.154272903951023E1  -2.574997399469990E1  -2.765460978552485E1  
 1.312713936430318E11   -2.827682500892714E1  -6.967894817162986E1  -7.011659949000075  -2.463100540526585E1  -7.039871303579971  -5.691686983249522E1  -2.491833110785137E1   8.523663648986814  
 1.312836185819071E11   -2.503281191785175E1  -4.135680254821152E1  -7.054692146891836  -4.906291321131404E1  -7.085930692687024  -8.187635274295823E1  -2.075718761871656E1   1.305647680396133E1  
 1.312958435207824E11   -2.130133108262747E1  -4.543390821435581E1  -7.107754141697787  -7.417050047076252E1  -7.127922355406124  -1.065780356902842E2  -1.834493730835504E1   2.055564010506864  
 1.313080684596577E11   -1.942106209534726E1  -5.934500144392851E1  -7.145686011657361  -9.831861615837246E1  -7.160521994037802  -1.309767916352542E2  -1.732228447074158E1  -1.299761830227212E1  
 1.313202933985330E11   -1.897500667509583E1  -7.669203395490963E1  -7.141374737308672  -1.227876236619983E2  -7.166674418464178  -1.552847212113013E2  -1.756147442929515E1  -2.807809250793428E1  
 1.313325183374083E11   -1.992789715747919E1  -9.452598149536883E1  -7.094878613034459  -1.473616680478367E2  -7.116026661531987  -1.797268975713158E2  -1.906744364566532E1  -4.011025528792073E1  
 1.313447432762836E11   -2.260279102094739E1  -1.095809545589133E2  -7.041671669733128  -1.720107043398778E2  -7.071910930392158   1.556478521125469E2  -2.178162675027008E1  -4.252118963921286E1  
 1.313569682151589E11   -2.838584545882916E1  -1.118310015886805E2  -7.023076770795290   1.629090426550138E2  -7.040782290086133   1.303376194883395E2  -2.363677133336254E1  -2.429175368849539E1  
 1.313691931540342E11   -3.155526453662715E1  -4.590908418206117E1  -7.045820953796958   1.379611291373919E2  -7.067563372649243   1.054002221204425E2  -2.128864570154589E1  -7.495202929210320  
 1.313814180929095E11   -2.421168198533172E1  -3.044038658410855E1  -7.133076620992059   1.129892901258674E2  -7.140930114532162   8.064148705901135E1  -1.850382813365487E1  -1.149558056192032E1  
 1.313936430317848E11   -2.053663151814068E1  -4.261765950747929E1  -7.183972588499061   8.864293415928333E1  -7.207122397934876   5.615223072948736E1  -1.693897565822580E1  -2.452399702789126E1  
 1.314058679706601E11   -1.890072776849043E1  -5.886804915706668E1  -7.229675135372307   6.425555976081968E1  -7.247181294510155   3.179077475293034E1  -1.657094432812867E1  -4.082778575735885E1  
 1.314180929095355E11   -1.869876471362472E1  -7.479449753041158E1  -7.210877757709398   3.983816063175545E1  -7.224834091682356   7.765177061016746  -1.750586292269455E1  -5.793937855810057E1  
 1.314303178484108E11   -1.978208357578719E1  -8.771979914790931E1  -7.150328896594279   1.558565380540121E1  -7.167885217858814  -1.709686254799227E1  -2.018972309740419E1  -7.359666503343942E1  
 1.314425427872861E11   -2.196561645101874E1  -9.124529509835236E1  -7.093494955196170  -9.211424796644504  -7.117729684330824  -4.193748873885615E1  -2.617517363285250E1  -7.499665605754250E1  
 1.314547677261614E11   -2.369844269035666E1  -7.746742659879908E1  -7.084132094996900  -3.411649845696609E1  -7.091614347262371  -6.732226763161522E1  -2.831772774604439E1  -5.950382676505321  
 1.314669926650367E11   -2.186361232855204E1  -6.049888520161744E1  -7.151083226492317  -5.929901463094356E1  -7.172528846809452  -9.203313179110823E1  -2.086386572615263E1   5.171716014611492  
 1.314792176039120E11   -1.889903741453562E1  -6.156386352105786E1  -7.252690240087777  -8.402020333183812E1  -7.275097621158745  -1.168997013594608E2  -1.714593495260188E1  -8.630612965658781  
 1.314914425427873E11   -1.689583415128540E1  -7.282141699156917E1  -7.336861879514797  -1.083481648694806E2  -7.370309034701737  -1.411363169381035E2  -1.532674204689032E1  -2.640704644840429E1  
 1.315036674816626E11   -1.595886291578082E1  -8.784502452213806E1  -7.388099721359240  -1.321018295301784E2  -7.419113443163709  -1.650133585409198E2  -1.477588910390581E1  -4.445674403019222E1  
 1.315158924205379E11   -1.593886679910742E1  -1.035771133416716E2  -7.347609124101910  -1.560576641165332E2  -7.394521310538583   1.713641423421926E2  -1.527011532795481E1  -6.224865537982207E1  
 1.315281173594132E11   -1.682053567333615E1  -1.185281696642480E2  -7.251159060594281   1.795432352543243E2  -7.284411853569177   1.470259687719467E2  -1.696079741702061E1  -7.755371185619384E1  
 1.315403422982885E11   -1.878868559199786E1  -1.311239960923788E2  -7.128580203575504   1.549620788331118E2  -7.163700202118491   1.225436048773924E2  -2.018181118514210E1  -8.509298777314537E1  
 1.315525672371638E11   -2.219063047898234E1  -1.339645946159377E2  -7.087710167526824   1.300109983049794E2  -7.124613478871037   9.697580892892398E1  -2.398535766874704E1  -6.921876496665902E1  
 1.315647921760391E11   -2.466711814491127E1  -1.118385035094456E2  -7.081960886017729   1.047910408907085E2  -7.118758300765088   7.193911581052313E1  -2.225776603757202E1  -4.016338624922262E1  
 1.315770171149144E11   -2.221669405372368E1  -9.249623222181282E1  -7.150352257479518   7.970785280193367E1  -7.187063643126778   4.703133354991557E1  -1.888665215885171E1  -3.992356287577615E1  
 1.315892420537897E11   -1.950137474050376E1  -9.647295363415897E1  -7.210522943192238   5.532373322382573E1  -7.250992881952715   2.261723589796741E1  -1.702702100349836E1  -5.202043775174068E1  
 1.316014669926650E11   -1.811037204503361E1  -1.092431177596166E2  -7.225562241313233   3.090216648654372E1  -7.273046173023412  -1.458619590794047  -1.656299994109767E1  -6.760804407134771E1  
 1.316136919315403E11   -1.799719782833452E1  -1.242544602362983E2  -7.178360721917234   6.758587438103081  -7.230555576337451  -2.587291208983073E1  -1.749515685663578E1  -8.280447493736919E1  
 1.316259168704157E11   -1.910670182151165E1  -1.392336199580788E2  -7.106527308633018  -1.817317719817730E1  -7.149557168835466  -5.011230548215841E1  -1.989038675532058E1  -9.298724853917823E1  
 1.316381418092910E11   -2.187659553149854E1  -1.498849207461819E2  -7.049329659534759  -4.279097751590686E1  -7.090577324764942  -7.548198568304068E1  -2.372644326311352E1  -8.675338196901707E1  
 1.316503667481663E11   -2.661971566243198E1  -1.412288229848336E2  -7.050822768700110  -6.856221105317937E1  -7.094179133126970  -1.001307703613322E2  -2.397950554194996E1  -5.205440018596152E1  
 1.316625916870416E11   -2.634654730034516E1  -9.804755013238487E1  -7.124927598742596  -9.349640558212522E1  -7.176212395182205  -1.254751746441581E2  -1.981196663010235E1  -4.310401396816803E1  
 1.316748166259169E11   -2.168856357862139E1  -9.073904862897540E1  -7.222922373397806  -1.181501236954124E2  -7.277027438184496  -1.498554567221672E2  -1.696610684605074E1  -5.372245916984996E1  
 1.316870415647922E11   -1.896647343384311E1  -1.016893858766184E2  -7.299843925870586  -1.421499849316348E2  -7.365370017729869  -1.737348392421785E2  -1.562724028842723E1  -7.016485599325814E1  
 1.316992665036675E11   -1.773415656392930E1  -1.160166925191018E2  -7.311974380638262  -1.661175779344931E2  -7.365652377397782   1.624659684432224E2  -1.558268729797989E1  -8.847585304818462E1  
 1.317114914425428E11   -1.756211893557585E1  -1.311133412426594E2  -7.226377637469487   1.701437156785765E2  -7.270091865758635   1.385371881161435E2  -1.681554280648547E1  -1.061599704734981E2  
 1.317237163814181E11   -1.849608635482696E1  -1.453861815004115E2  -7.096641871043037   1.449885325657415E2  -7.153540415358311   1.136783371979369E2  -1.966662533437170E1  -1.210448633512904E2  
 1.317359413202934E11   -2.079188895771966E1  -1.547152598403191E2  -7.037748760393028   1.199488969599345E2  -7.068371978582203   8.882462702436747E1  -2.543028667422536E1  -1.220842307290595E2  
 1.317481662591687E11   -2.384271384604434E1  -1.469053065914445E2  -7.024672794307642   9.497865682137015E1  -7.068597303915261   6.335444769061901E1  -2.786228937830335E1  -5.897458812207649E1  
 1.317603911980440E11   -2.361877738762675E1  -1.231213336695983E2  -7.083104030385185   6.957718885328802E1  -7.145593930864276   3.808332332038093E1  -2.091523150890289E1  -4.661865900640564E1  
 1.317726161369193E11   -2.056415571332726E1  -1.174649314268603E2  -7.179032116937402   4.506214645897133E1  -7.231330632896564   1.386192835742152E1  -1.741788291212126E1  -6.047389418721299E1  
 1.317848410757946E11   -1.841999821743591E1  -1.267331933211573E2  -7.250787850630176   2.109369314009434E1  -7.304934110334365  -1.056750364010055E1  -1.590016651406908E1  -7.887189370540907E1  
 1.317970660146699E11   -1.742228340451636E1  -1.401869191064624E2  -7.244698683818968  -3.153807634665308  -7.282473850589902  -3.406808719231709E1  -1.579970911394137E1  -9.729509894713442E1  
 1.318092909535452E11   -1.739474108972311E1  -1.558975340137736E2  -7.161857241047496  -2.748575137026710E1  -7.195613190633538  -5.814732577371686E1  -1.687881195258076E1  -1.143069405434876E2  
 1.318215158924205E11   -1.855775920747912E1  -1.713864325008783E2  -7.051963322466889  -5.203125296232840E1  -7.086581685158225  -8.278331346641653E1  -1.933374376989296E1  -1.283709424981895E2  
 1.318337408312958E11   -2.126577848556229E1   1.777676095789388E2  -6.996237453557628  -7.752861878641794E1  -7.045769540767885  -1.077450295817361E2  -2.401613451152957E1  -1.279360991775897E2  
 1.318459657701711E11   -2.551361827122904E1  -1.748372694766325E2  -6.986816432128872  -1.027969890312460E2  -7.030364782357973  -1.325976250067508E2  -2.608997964129214E1  -8.553911430417797E1  
 1.318581907090465E11   -2.563779643075361E1  -1.393353835669541E2  -7.039484170068536  -1.276269116873098E2  -7.101945035653300  -1.581810510358082E2  -2.100735320937447E1  -7.099317437625089E1  
 1.318704156479218E11   -2.172797008788015E1  -1.314433381777598E2  -7.139200285628109  -1.524875837369492E2  -7.165745013303773   1.775072170861929E2  -1.785256443019680E1  -8.261872339677925E1  
 1.318826405867971E11   -1.919771808925095E1  -1.408882052114632E2  -7.203930471724040  -1.764502219357641E2  -7.241668991583889   1.531474178525658E2  -1.654384395231013E1  -9.997670262415241E1  
 1.318948655256724E11   -1.799963926135603E1  -1.548826735689445E2  -7.168925948975657   1.597522715665546E2  -7.211090807036522   1.293573431946097E2  -1.662985634295966E1  -1.178452051027659E2  
 1.319070904645477E11   -1.793092828750256E1  -1.713866439017967E2  -7.094594273266727   1.351225440224234E2  -7.115814519591419   1.049286705226865E2  -1.782025578785352E1  -1.350005143451581E2  
 1.319193154034230E11   -1.908602287601927E1   1.730470811393969E2  -7.020111484191910   1.102186855697769E2  -7.047611083601520   8.018210456874373E1  -2.061452449753035E1  -1.500255423264829E2  
 1.319315403422983E11   -2.164594587956458E1   1.623491572790049E2  -6.981050532626617   8.496756433449565E1  -6.998709240142309   5.524519562949308E1  -2.610138087356074E1  -1.509119583240550E2  
 1.319437652811736E11   -2.539207173962531E1   1.689388691457964E2  -6.982166684789214   6.002999312027421E1  -6.992695044420144   3.016892116019178E1  -2.861140396763814E1  -9.512042419045842E1  
 1.319559902200489E11   -2.587946161020840E1  -1.627539565155854E2  -7.043731620946029   3.491889077336936E1  -7.077812006702983   5.093257057579966  -2.244354582198580E1  -8.258669372716736E1  
 1.319682151589242E11   -2.284434957733610E1  -1.539776381560223E2  -7.131180407087808   1.040552358258674E1  -7.149431438284901  -1.897385071627840E1  -1.936150653000605E1  -9.679438911443698E1  
 1.319804400977995E11   -2.064206964629372E1  -1.611442892369935E2  -7.113368269328848  -1.372971056564800E1  -7.145870632193754  -4.313255600278531E1  -1.850448183939369E1  -1.145739750726817E2  
 1.319926650366748E11   -1.963863512905283E1  -1.742305378000170E2  -7.053205824229507  -3.808223899366205E1  -7.094030010592014  -6.779149862833499E1  -1.910402246170882E1  -1.311015332384353E2  
 1.320048899755501E11   -1.996932338065589E1   1.707523027414117E2  -7.013528969862240  -6.296341364099159E1  -7.040234199434574  -9.241717204637870E1  -2.112087611223421E1  -1.463009240529904E2  
 1.320171149144254E11   -2.190222755421531E1   1.576789427645022E2  -6.971823338549609  -8.783140720616368E1  -7.006356809465464  -1.174804259548982E2  -2.583598053334978E1  -1.512087318137614E2  
 1.320293398533007E11   -2.557607596212273E1   1.575716219444099E2  -6.987257275833144  -1.130348257298014E2  -7.019222127626540  -1.425971652207506E2  -2.981230666153603E1  -9.877155245594956E1  
 1.320415647921760E11   -2.755570750217133E1  -1.700787512697394E2  -7.040106776152086  -1.380433209942367E2  -7.091095540996091  -1.673107225997509E2  -2.282241422670959E1  -7.666599861707091E1  
 1.320537897310514E11   -2.363615459593071E1  -1.525705755797898E2  -7.162464867293346  -1.626045208531516E2  -7.186904819662142   1.677132589830426E2  -1.865482533388211E1  -8.985925120856061E1  
 1.320660146699267E11   -2.052102696585625E1  -1.578065506680125E2  -7.231204841491912   1.734795101525746E2  -7.270905495386663   1.434229612873260E2  -1.668845228878505E1  -1.088559637856189E2  
 1.320782396088020E11   -1.847369429388022E1  -1.699836149985514E2  -7.210812680585961   1.494101265425886E2  -7.246108235235085   1.196910531266375E2  -1.617588177395564E1  -1.282053289429608E2  
 1.320904645476773E11   -1.753512686298792E1   1.735037171398782E2  -7.164670031658421   1.251270551743363E2  -7.209897732814211   9.572580620368363E1  -1.661911925929871E1  -1.472212312764211E2  
 1.321026894865526E11   -1.772530619317878E1   1.562176274384535E2  -7.095654231349363   1.008576783241892E2  -7.127207522101553   7.084409639416415E1  -1.820598116440520E1  -1.658617987143259E2  
 1.321149144254279E11   -1.901851530143121E1   1.411393341409177E2  -7.030493095673552   7.606227364844324E1  -7.055518048831881   4.597875156785391E1  -2.153743142972260E1   1.790067836753361E2  
 1.321271393643032E11   -2.163740881193971E1   1.322503210253067E2  -6.986279532621561   5.097932229391314E1  -7.024670144775206   2.107560700622020E1  -2.809635493118193E1  -1.760001698829973E2  
 1.321393643031785E11   -2.474269843090982E1   1.392248659551382E2  -7.020817340761594   2.615831714630941E1  -7.044073898360125  -4.122282629598669  -2.771633506488618E1  -1.137630804675883E2  
 1.321515892420538E11   -2.497949148516543E1   1.609517218243597E2  -7.074824136229498   1.307260370352101  -7.114641452879575  -2.865258260156353E1  -2.194264022115156E1  -1.131978863384822E2  
 1.321638141809291E11   -2.253139426342738E1   1.689458105144811E2  -7.093386738840210  -2.272916069148960E1  -7.124653620586148  -5.280318154480742E1  -1.943926480666818E1  -1.287639986567198E2  
 1.321760391198044E11   -2.023801080029557E1   1.616213159210448E2  -7.053604807049188  -4.725949901206476E1  -7.096501501766712  -7.722797985082320E1  -1.849343591462649E1  -1.456673159926989E2  
 1.321882640586797E11   -1.916557015149909E1   1.469665045155733E2  -7.047045513884880  -7.199608375500588E1  -7.077034504757941  -1.018772877275032E2  -1.861691075495478E1  -1.637091909653535E2  
 1.322004889975550E11   -1.935648172751975E1   1.304589891408698E2  -7.006027650506442  -9.649367966737589E1  -7.043902135977103  -1.265749311963594E2  -2.002252253690288E1   1.778154583107670E2  
 1.322127139364303E11   -2.074951342500618E1   1.146846275313531E2  -6.969873375029986  -1.210399413547120E2  -6.999781210208674  -1.514913495940727E2  -2.335098337521613E1   1.633443765365462E2  
 1.322249388753056E11   -2.365286726120949E1   1.033201802588094E2  -6.969648237775080  -1.461977284917521E2  -7.005009724059876  -1.760898058778583E2  -2.915427198906840E1   1.727936503383277E2  
 1.322371638141809E11   -2.817443179915872E1   1.078459058674674E2  -7.016557794343055  -1.709385532899405E2  -7.047269682485686   1.590383091950297E2  -2.806243717791420E1  -1.404112762860217E2  
 1.322493887530562E11   -2.993474655164378E1   1.456623607919308E2  -7.044494335035155   1.648903641528007E2  -7.067190780074895   1.344609243284313E2  -2.351825566144122E1  -1.422558013563753E2  
 1.322616136919315E11   -2.581504887718394E1   1.632277565070672E2  -7.004228558910474   1.404228556326499E2  -7.043851319750464   1.099592596352474E2  -2.169698114337520E1  -1.570531275334141E2  
 1.322738386308068E11   -2.276722681477806E1   1.552360608718481E2  -6.990219825789761   1.156414631119187E2  -7.012750754686568   8.495735982501299E1  -2.106011456068930E1  -1.748617776765083E2  
 1.322860635696822E11   -2.159541431922323E1   1.407089063901835E2  -6.986457843163877   9.111424041811758E1  -7.003584375963614   6.039719402651704E1  -2.171720523065901E1   1.633784289641475E2  
 1.322982885085575E11   -2.184100331563890E1   1.256512908332661E2  -6.965073533791714   6.669905750377782E1  -6.992229531403425   3.573019185263921E1  -2.437028372120515E1   1.374415151257839E2  
 1.323105134474328E11   -2.330578812186551E1   1.151990706550256E2  -6.968170692979418   4.156547312629864E1  -6.999667822319146   1.095592291539050E1  -3.079272962031443E1   1.018593827961208E2  
 1.323227383863081E11   -2.570558759206690E1   1.139565262047801E2  -7.010731610633581   1.661438952809615E1  -7.039838050783981  -1.376426185934310E1  -3.680509647796615E1  -4.640464155664947E1  
 1.323349633251834E11   -2.764618020304884E1   1.278431915511996E2  -7.047539687044413  -7.441475828224370  -7.071754992737642  -3.821213472131198E1  -2.678581794746368E1  -1.011678712502210E2  
 1.323471882640587E11   -2.605839043988700E1   1.484059039833987E2  -7.005612872019847  -3.178613102719794E1  -7.030506692598642  -6.265381556109136E1  -2.330749849833450E1  -1.276889164879538E2  
 1.323594132029340E11   -2.304104662730403E1   1.477444862904422E2  -6.972133798406717  -5.604020886753203E1  -7.016250114912779  -8.728655059367638E1  -2.174532420526317E1  -1.507921197517462E2  
 1.323716381418093E11   -2.121744476289027E1   1.353243174817567E2  -6.950835303349231  -8.073568261018787E1  -6.981759810380239  -1.121670030476447E2  -2.150130163958591E1  -1.749434180299494E2  
 1.323838630806846E11   -2.085242982448822E1   1.206149091499982E2  -6.941309665255094  -1.055539673649919E2  -6.961167275238268  -1.367666217395107E2  -2.277086010516916E1   1.592259461022013E2  
 1.323960880195599E11   -2.162196601910652E1   1.072065020891693E2  -6.919111310204089  -1.302101214439506E2  -6.944749252560389  -1.614180516946591E2  -2.638906176765624E1   1.297027336699943E2  
 1.324083129584352E11   -2.355911418262227E1   9.905256272299839E1  -6.912579838797195  -1.550207499820463E2  -6.957753718353318   1.734635378828696E2  -3.681715410585620E1   7.935911388612890E1  
 1.324205378973105E11   -2.603286202309625E1   1.029758319312878E2  -6.948967001692807   1.799338644492680E2  -6.986014792315859   1.492190598138104E2  -3.192866199463069E1  -7.639676901820302E1  
 1.324327628361858E11   -2.658684345115652E1   1.236196115709646E2  -6.948520443364431   1.555673271646865E2  -6.987353108072782   1.249224266289435E2  -2.529016043322720E1  -1.096538721050257E2  
 1.324449877750611E11   -2.374684103751565E1   1.339146383526108E2  -6.933568622324677   1.310580850987251E2  -6.954325567474506   1.003994995033460E2  -2.226207221255498E1  -1.330803829952521E2  
 1.324572127139364E11   -2.105952312224711E1   1.261371024963897E2  -6.937857491577126   1.059242544585422E2  -6.974128400783521   7.548618121533039E1  -2.072585590206514E1  -1.569903623529244E2  
 1.324694376528117E11   -1.971949385665653E1   1.112589800688485E2  -6.941099840544698   8.175026332288105E1  -6.983093841720063   5.121549197683815E1  -2.054943648614363E1   1.785303377356874E2  
 1.324816625916870E11   -1.948229265747977E1   9.481515381768138E1  -6.948145852552239   5.708190554118327E1  -6.985530686651585   2.659300226003869E1  -2.167577190415361E1   1.534233373508258E2  
 1.324938875305624E11   -2.023525749269857E1   7.891441810977985E1  -6.930508432190266   3.263167826255448E1  -6.978774204039759   2.176355649801084  -2.458887463684320E1   1.303350778393138E2  
 1.325061124694377E11   -2.191783349970280E1   6.463256165820913E1  -6.961680247868941   8.188426964219708  -6.997883294675942  -2.240948929947557E1  -3.061031063117762E1   1.171097998288510E2  
 1.325183374083130E11   -2.490845793325446E1   5.569665507702337E1  -6.932790840638583  -1.662408869698956E1  -6.976608513683921  -4.673306179104909E1  -3.771892727559094E1   1.614514998135964E2  
 1.325305623471883E11   -2.914630517080341E1   6.698005763070390E1  -6.886728663296363  -4.102534916504176E1  -6.933775546974768  -7.118382767506090E1  -3.238759604555346E1  -1.568836055994816E2  
 1.325427872860636E11   -2.880599954228865E1   9.974422626219297E1  -6.850876397144451  -6.608157127099405E1  -6.897884242188671  -9.605330029640457E1  -2.797459158826289E1  -1.662494036166962E2  
 1.325550122249389E11   -2.528777065989970E1   1.040043882626762E2  -6.868835171247501  -9.096171238855699E1  -6.890412793497818  -1.208384287704464E2  -2.606115726217619E1   1.735855037338337E2  
 1.325672371638142E11   -2.350571033696979E1   9.361376348000349E1  -6.866839744167067  -1.157742104254029E2  -6.916596588580749  -1.455843502921388E2  -2.646833687611598E1   1.472177206882975E2  
 1.325794621026895E11   -2.308455329398637E1   8.058458775105316E1  -6.897762172863615  -1.407371446828028E2  -6.937767687175133  -1.699714767641185E2  -2.967933677779775E1   1.155485822344732E2  
 1.325916870415648E11   -2.393312987849311E1   6.757925501110648E1  -6.952460606596058  -1.652845341040232E2  -7.001995627810659   1.653473158873853E2  -3.886848474725601E1   5.803910456442230E1  
 1.326039119804401E11   -2.606661027356959E1   5.850700935117133E1  -6.974479448960297   1.707404717094349E2  -7.020836985993689   1.406384700730923E2  -3.481508962711331E1  -8.332056962727653E1  
 1.326161369193154E11   -2.964151156559199E1   6.571505448174165E1  -6.936319656213454   1.460024035508799E2  -6.981193034277085   1.166218397894210E2  -2.845093344411852E1  -1.163206367309452E2  
 1.326283618581907E11   -2.928155196770720E1   9.756884324528242E1  -6.885747717957260   1.213382918696489E2  -6.938977392063492   9.188921976741014E1  -2.519140812167862E1  -1.390055525317271E2  
 1.326405867970660E11   -2.525409778149297E1   1.020249845564421E2  -6.878341563113097   9.650630827834740E1  -6.925965789311531   6.723516202333762E1  -2.344613118313576E1  -1.615019029941030E2  
 1.326528117359413E11   -2.291807399062770E1   8.997338449502580E1  -6.881682191549290   7.169195370037147E1  -6.930141202996586   4.253309324070049E1  -2.311980449929968E1   1.755914957287669E2  
 1.326650366748166E11   -2.198155178719602E1   7.305863397839572E1  -6.886556550215897   4.719333956178370E1  -6.923708527251272   1.775990036500538E1  -2.425727430365567E1   1.539431838242019E2  
 1.326772616136919E11   -2.219105816128764E1   5.474485677162842E1  -6.897044536895488   2.224313966144644E1  -6.963152515550860  -6.995776024177285  -2.746659125383505E1   1.394832770144555E2  
 1.326894865525672E11   -2.371739402728633E1   3.613310152771881E1  -6.912744890225403  -2.069838130525384  -6.978708515767805  -3.132259663032968E1  -3.196150723720487E1   1.522878110795122E2  
 1.327017114914425E11   -2.706529669398677E1   1.705977959808061E1  -6.912075353153489  -2.664819492222285E1  -6.971734312406939  -5.603083371913974E1  -3.039474622388034E1  -1.761974849439281E2  
 1.327139364303178E11   -3.625776076936095E1   1.104364462132285E1  -6.875190510110675  -5.131215129252996E1  -6.938785926932322  -8.052615991884905E1  -2.644422111784533E1  -1.737368748565211E2  
 1.327261613691932E11   -3.477662718828326E1   1.270965436104164E2  -6.879639669143757  -7.604047914959291E1  -6.938391704813860  -1.055390617477962E2  -2.356573386707076E1   1.723964453353862E2  
 1.327383863080685E11   -2.679679270876780E1   1.165434095207580E2  -6.895538901738816  -1.011460225396523E2  -6.960678174127621  -1.298866505542657E2  -2.201680132180506E1   1.525069058484286E2  
 1.327506112469438E11   -2.346406136452181E1   9.739423515759249E1  -6.936242327611894  -1.257179525962554E2  -6.988916499063865  -1.545494227299483E2  -2.168867004972263E1   1.291932287369772E2  
 1.327628361858191E11   -2.212275642753951E1   7.739712544674079E1  -6.945375837015101  -1.499073585821419E2  -7.017613615200248  -1.792275675751830E2  -2.264777006943957E1   1.040080299821497E2  
 1.327750611246944E11   -2.206246548513999E1   5.853830297836851E1  -6.965228474552139  -1.744285982826040E2  -7.031355159430150   1.565818114853080E2  -2.542774992874854E1   7.836722476750015E1  
 1.327872860635697E11   -2.332556543095211E1   3.934553253106817E1  -6.941433521285744   1.612908087973705E2  -7.001407258665796   1.322831269530194E2  -3.071182824459618E1   5.538247456175039E1  
 1.327995110024450E11   -2.644433017285052E1   2.411751585912611E1  -6.879366005482897   1.363733282535853E2  -6.936813597022931   1.075443695891856E2  -4.848052414962450E1   3.758261387065988E1  
 1.328117359413203E11   -3.224914416938178E1   2.919374549831430E1  -6.857216547154408   1.119791107958462E2  -6.919369660570565   8.297795476781023E1  -3.314865881646020E1  -1.725076368418165E2  
 1.328239608801956E11   -3.274156353892128E1   8.495500693382029E1  -6.857737932040877   8.686703589397314E1  -6.909975565211034   5.755187361388510E1  -2.708142732344213E1   1.614606270698951E2  
 1.328361858190709E11   -2.690150351209503E1   9.318701612726525E1  -6.888565336916356   6.209868262770358E1  -6.934605027566982   3.328726089446219E1  -2.431460078046858E1   1.334985917399749E2  
 1.328484107579462E11   -2.395773621816266E1   8.141658066128417E1  -6.921026549548376   3.762731928512659E1  -6.958954736370057   8.546167087953926  -2.344431148282548E1   1.039779589285756E2  
 1.328606356968215E11   -2.250589756639555E1   6.524115738415102E1  -6.962892481179115   1.332128420670628E1  -6.985820805288251  -1.607499851797938E1  -2.412682974472887E1   7.267410615611419E1  
 1.328728606356968E11   -2.240551205679914E1   4.771312512606630E1  -6.952660652076396  -1.095740787052247E1  -6.989973203792778  -4.036200400832673E1  -2.618042649417112E1   4.118609655310542E1  
 1.328850855745721E11   -2.367492899262195E1   3.102978271873986E1  -6.890813163708223  -3.521442113566287E1  -6.919123937463350  -6.487826023486120E1  -2.920661901095284E1   2.043255595320357  
 1.328973105134474E11   -2.653701541521779E1   2.280993446572795E1  -6.815047414455553  -6.002289750502889E1  -6.865246122748173  -8.927187808082134E1  -3.208276624025219E1  -5.832083501120216E1  
 1.329095354523227E11   -2.992552990069429E1   3.387100027446903E1  -6.787258867520118  -8.479078658924384E1  -6.826283297646687  -1.141857776088424E2  -3.053199386055447E1  -1.307747299715743E2  
 1.329217603911980E11   -2.918320360613058E1   6.148356338459259E1  -6.792441529239885  -1.098618780296170E2  -6.812787856876580  -1.392582365175705E2  -2.742022892135052E1   1.789420929447076E2  
 1.329339853300734E11   -2.587240819442038E1   6.499895158625272E1  -6.811431290360060  -1.345050282099908E2  -6.839432965649803  -1.640486694511475E2  -2.588232121912828E1   1.390559549909811E2  
 1.329462102689487E11   -2.374532265642455E1   5.499416098553468E1  -6.845619249629234  -1.594289425034635E2  -6.885862914580501   1.710989580382765E2  -2.597659241291456E1   1.044676629246516E2  
 1.329584352078240E11   -2.291171124273844E1   3.879831240071296E1  -6.891742437392642   1.763843550391268E2  -6.925455666781512   1.468645174879647E2  -2.797106330777941E1   7.247501379715332E1  
 1.329706601466993E11   -2.356898934637263E1   2.036855634499785E1  -6.845199522239844   1.521487753394197E2  -6.893267375668605   1.225524130863338E2  -3.199566879981316E1   4.034003651008264E1  
 1.329828850855746E11   -2.614874647446710E1   4.787332973176797  -6.791026988839120   1.274991433656510E2  -6.823801021605360   9.794057659748408E1  -3.952363858006018E1  -2.602526213869435E1  
 1.329951100244499E11   -3.161486346521797E1   1.513501874284001  -6.745791874095015   1.028003769585487E2  -6.790032856150080   7.319872611452090E1  -3.381648764107559E1  -1.436502502102218E2  
 1.330073349633252E11   -3.509952357060150E1   6.412003960906498E1  -6.728703988319387   7.772215951616006E1  -6.783271691351383   4.814021788312333E1  -2.743803112143733E1   1.742893946109879E2  
 1.330195599022005E11   -2.772014097856532E1   8.140852605017129E1  -6.781277329085701   5.289402358906260E1  -6.818705415998878   2.317857240125780E1  -2.415625022190449E1   1.408501025192798E2  
 1.330317848410758E11   -2.382571837944718E1   6.917599942255303E1  -6.812397662023636   2.814610032655426E1  -6.873701699587785  -1.353873842117223  -2.275132351396209E1   1.100797310547991E2  
 1.330440097799511E11   -2.180495248945311E1   5.179122954406447E1  -6.866659108686007   3.667044581242592  -6.920427948957356  -2.597086909264317E1  -2.268277661363134E1   8.083745672320875E1  
 1.330562347188264E11   -2.124285487216954E1   3.181692322504977E1  -6.861677412967913  -2.037411285029734E1  -6.915140654022074  -5.018208722353626E1  -2.368143858061871E1   5.387383094197805E1  
 1.330684596577017E11   -2.200975281206111E1   1.304439591436313E1  -6.797770894659827  -4.474152440968253E1  -6.862710898037637  -7.448160954092479E1  -2.579208021821704E1   2.543979023205847E1  
 1.330806845965770E11   -2.428105611688590E1  -4.150152156775438  -6.740294530365002  -6.942191598941662E1  -6.795129910244846  -9.909444015010773E1  -3.034967102254060E1  -7.429508531995587  
 1.330929095354523E11   -2.881007309837556E1  -1.223539219201575E1  -6.690862342312027  -9.439309624908255E1  -6.756021423249139  -1.238910908947672E2  -4.124016564802292E1  -8.995612081305971E1  
 1.331051344743276E11   -3.507393334923238E1   2.495963895365149E1  -6.701072429962631  -1.194011263874101E2  -6.754908073099944  -1.491970935497888E2  -3.219592692102749E1   1.483623036052564E2  
 1.331173594132029E11   -2.898294777620964E1   6.551922361402991E1  -6.738083873163038  -1.442396969753740E2  -6.796999166991468  -1.741219638341137E2  -2.667437044253207E1   1.092226529395390E2  
 1.331295843520783E11   -2.444513620297024E1   5.751506115622912E1  -6.803071158275867  -1.687872960603721E2  -6.867904517843567   1.611797664747207E2  -2.450979687909474E1   7.713538937051808E1  
 1.331418092909536E11   -2.246971316220385E1   4.172839023165488E1  -6.835408932557693   1.669010073908724E2  -6.888911886486987   1.372753900023879E2  -2.392793647792601E1   4.781969196291589E1  
 1.331540342298289E11   -2.209340053476331E1   2.478539500353613E1  -6.803512046249482   1.427694368331763E2  -6.849033606743730   1.128272206717647E2  -2.422793517203870E1   1.699809103461451E1  
 1.331662591687042E11   -2.297237055283251E1   1.029133296015005E1  -6.738169632553082   1.179458591526059E2  -6.806096506414530   8.804312352936221E1  -2.577523194061496E1  -1.878334281454503E1  
 1.331784841075795E11   -2.518285598599124E1   2.396798712539226  -6.692093731506333   9.328537273731901E1  -6.752075073672311   6.346335823344155E1  -2.821265352494282E1  -6.645523749562089E1  
 1.331907090464548E11   -2.796970813562148E1   1.110615877159879E1  -6.683744975758563   6.829912396019721E1  -6.738980115958441   3.833592810043479E1  -2.973670739983770E1  -1.343690967614460E2  
 1.332029339853301E11   -2.728995152858547E1   3.503610844053468E1  -6.710104126617359   4.311330957301512E1  -6.768916918542693   1.328987226996757E1  -2.757340178197590E1   1.621881164095053E2  
 1.332151589242054E11   -2.400162619687763E1   4.020597321323193E1  -6.793850946706465   1.824148193581970E1  -6.851130642723126  -1.162758758596658E1  -2.511431981971257E1   1.177548720088463E2  
 1.332273838630807E11   -2.158010046609948E1   2.971082987283338E1  -6.862133846246873  -5.963605767455044  -6.908208069995241  -3.571242095468315E1  -2.378017140914078E1   8.454076891008594E1  
 1.332396088019560E11   -2.058938523679845E1   1.364111245839162E1  -6.850073389494641  -2.968350267529396E1  -6.919769288571931  -6.023346252017868E1  -2.332662369345860E1   5.491881530840940E1  
 1.332518337408313E11   -2.071337157819477E1  -3.072235130150631  -6.814994351623403  -5.428449639202742E1  -6.879695134780962  -8.448290372260722E1  -2.401951378181826E1   2.710833801184623E1  
 1.332640586797066E11   -2.209522121745469E1  -1.909044367988750E1  -6.769323197241977  -7.913165229334305E1  -6.820971512995514  -1.090067562022338E2  -2.638608231626675E1  -1.595986350144173  
 1.332762836185819E11   -2.513481198875171E1  -3.178754461666702E1  -6.731230150553712  -1.042226417138067E2  -6.768099387004191  -1.338421872337734E2  -3.201129313097543E1  -2.767077550593818E1  
 1.332885085574572E11   -3.113140401437585E1  -2.748471865176080E1  -6.712603592722237  -1.288907363011243E2  -6.766282701379925  -1.587575118305703E2  -5.157191668993295E1   8.992612606027024E1  
 1.333007334963325E11   -3.163262319361981E1   3.559827808381382E1  -6.752529464066625  -1.539534983622812E2  -6.806243300729316   1.765084852662832E2  -3.052769198998039E1   8.854086411370714E1  
 1.333129584352078E11   -2.536210547274874E1   4.355369974103446E1  -6.834855285863265  -1.786292805421426E2  -6.896879620151150   1.517930458137762E2  -2.583383999562537E1   6.141391953935072E1  
 1.333251833740831E11   -2.220830293681800E1   3.015473869144498E1  -6.883947814049670   1.572226489037283E2  -6.926281150194489   1.273923757342153E2  -2.364503266834725E1   3.488706474343091E1  
 1.333374083129584E11   -2.089274700448615E1   1.604285552444157E1  -6.865449074477516   1.327808183784344E2  -6.921187169889407   1.030962720664315E2  -2.274174641600085E1   6.968979625213873  
 1.333496332518337E11   -2.070167954777995E1   2.322545231118780  -6.838432647629460   1.086337037181547E2  -6.872801382809803   7.879754248620503E1  -2.294154715436293E1  -2.398589008651085E1  
 1.333618581907091E11   -2.147247841616991E1  -7.675029202352258  -6.790291825932289   8.389144973059011E1  -6.823957952488007   5.399129191960343E1  -2.433466920662341E1  -6.011746918652823E1  
 1.333740831295844E11   -2.292462246380906E1  -1.079226809350369E1  -6.754126753620432   5.858178680133820E1  -6.796404529470569   2.945023373297545E1  -2.650666450982411E1  -1.063233414643935E2  
 1.333863080684597E11   -2.382995124360567E1  -3.288190194224633  -6.766002139659182   3.389670110294060E1  -6.794347233723133   4.260015836959138  -2.782583392869717E1  -1.679202251317643E2  
 1.333985330073350E11   -2.261411167612710E1   6.102850230228962  -6.798111097835237   8.696760534220580  -6.838404912176141  -2.056939244025660E1  -2.630173457697701E1   1.309734695149914E2  
 1.334107579462103E11   -2.055472385591062E1   3.976409113491944  -6.862802683168712  -1.570649649705139E1  -6.897088743796990  -4.499538410502522E1  -2.406479076988290E1   8.624965059726939E1  
 1.334229828850856E11   -1.908543794006207E1  -5.047818113214593  -6.888182416951980  -3.992178293300152E1  -6.925745472781500  -6.909116594211714E1  -2.252570473085242E1   5.010909616307460E1  
 1.334352078239609E11   -1.837958394239070E1  -1.665332221640824E1  -6.872725035218164  -6.434880214995094E1  -6.918581078853253  -9.367700624604812E1  -2.195243078910684E1   1.659565187934324E1  
 1.334474327628362E11   -1.840620095294833E1  -2.888372623678533E1  -6.841892314014531  -8.881122092300831E1  -6.878754700767527  -1.179347699560588E2  -2.237772927851809E1  -1.777537845543927E1  
 1.334596577017115E11   -1.910101324399936E1  -3.938148962226617E1  -6.798720525362841  -1.135480562321489E2  -6.830269815717716  -1.426669777494061E2  -2.371684032903407E1  -5.584111509403179E1  
 1.334718826405868E11   -2.033912785948142E1  -4.539091946714396E1  -6.766618315232019  -1.379345243551412E2  -6.784945325484380  -1.672244646136042E2  -2.578436618512166E1  -1.020710914870101E2  
 1.334841075794621E11   -2.140605187246107E1  -4.347849470835593E1  -6.740945761527085  -1.631419887686797E2  -6.786810688176693   1.677515150760209E2  -2.697398742600653E1  -1.602311452894753E2  
 1.334963325183374E11   -2.111529510541550E1  -3.814683209484291E1  -6.802123321900661   1.719077838670880E2  -6.829949334604927   1.429621958942005E2  -2.562250837182381E1   1.437548848245299E2  
 1.335085574572127E11   -1.990669283221913E1  -4.069699647141474E1  -6.813740846542535   1.472417183356912E2  -6.859410871810622   1.185953400922386E2  -2.364401323606872E1   1.010489656508456E2  
 1.335207823960880E11   -1.887699327708441E1  -4.862889955181087E1  -6.824191173450823   1.233628873185673E2  -6.870340191316871   9.397152683483041E1  -2.243347483971245E1   6.723897024140533E1  
 1.335330073349633E11   -1.844643453135702E1  -6.135436920376182E1  -6.810247051930379   9.873605611633626E1  -6.873447261781772   6.986941696878117E1  -2.211316199860777E1   3.728344992310128E1  
 1.335452322738386E11   -1.872918638727641E1  -7.622191658553624E1  -6.780992456614400   7.423779246571088E1  -6.820604936508340   4.510770002575763E1  -2.293045498947059E1   1.016916487301142E1  
 1.335574572127139E11   -1.983450360630244E1  -9.182263654998427E1  -6.730923733834286   4.970681158923510E1  -6.781133023198766   2.062957937488406E1  -2.516876546108791E1  -1.376726452869410E1  
 1.335696821515892E11   -2.208604503913959E1  -1.059331733459096E2  -6.702410071629373   2.473290487589414E1  -6.733695895572475  -4.114359850619435  -2.966823545144462E1  -3.434806093209640E1  
 1.335819070904645E11   -2.598810398754860E1  -1.125113632218930E2  -6.676090260336602   2.864959252562689E-1  -6.704489860152858  -2.918921498627099E1  -4.036591222038116E1  -2.859363886560886E1  
 1.335941320293399E11   -3.029325426480224E1  -9.314394459917426E1  -6.676746908571537  -2.490603011504996E1  -6.718481408541859  -5.402740194346087E1  -3.509070700083957E1   6.457742338820918E1  
 1.336063569682152E11   -2.888550950873946E1  -6.536169508464241E1  -6.697573163352669  -5.001672237047969E1  -6.717107793944411  -7.892109747974628E1  -2.931968981939183E1   5.438744309992455E1  
 1.336185819070905E11   -2.638319384803123E1  -6.640636283000457E1  -6.717209023252833  -7.426637616556732E1  -6.735154053587458  -1.035488837786633E2  -2.748371562074777E1   3.707053861421473E1  
 1.336308068459658E11   -2.556788278137140E1  -8.044842082787253E1  -6.711802854340188  -9.921438391257327E1  -6.750524652477745  -1.282545083074564E2  -2.787630523863044E1   2.286139932415462E1  
 1.336430317848411E11   -2.686905715908669E1  -9.959863877004010E1  -6.717354497445840  -1.237800996084747E2  -6.745683893589052  -1.533544037163962E2  -2.998028461528763E1   2.207075671993073E1  
 1.336552567237164E11   -3.166030282307547E1  -1.271474739288314E2  -6.726335579659415  -1.487115010770191E2  -6.767016004279412  -1.781774166638265E2  -3.045709857483018E1   4.754143907789496E1  
 1.336674816625917E11   -4.153322333839385E1   9.271349183476262E1  -6.778826968598798  -1.732290068132123E2  -6.806494795495762   1.570663084821229E2  -2.620034350506619E1   6.165611581347353E1  
 1.336797066014670E11   -2.765789745247258E1   2.769546999574449E1  -6.829459249158630   1.617038892924605E2  -6.867511631227637   1.324354326559514E2  -2.233446735799858E1   5.309861709397293E1  
 1.336919315403423E11   -2.245127671252458E1   1.821293889641383  -6.904102097611351   1.372922254052339E2  -6.931122800879587   1.081015917086315E2  -1.984348136367058E1   3.697779930489613E1  
 1.337041564792176E11   -1.976085016215375E1  -2.069463592931104E1  -6.966188041882885   1.131284645461883E2  -6.987722921067848   8.394843033002873E1  -1.835638692452027E1   1.825114738627085E1  
 1.337163814180929E11   -1.834103635395339E1  -4.193507249422600E1  -6.985505302840560   8.862644804276992E1  -7.024210622643119   5.945751202643147E1  -1.781982401888083E1  -1.138405645295457  
 1.337286063569682E11   -1.793229319136725E1  -6.345096457282639E1  -6.971312067902343   6.455600422647312E1  -7.018624119070866   3.587798262820727E1  -1.808455605034376E1  -2.072860584290647E1  
 1.337408312958435E11   -1.841396613094502E1  -8.363742718188941E1  -6.927773368109145   4.046413541943748E1  -6.951839987289947   1.120189387901485E1  -1.923050978197382E1  -3.984271948196709E1  
 1.337530562347188E11   -1.996193529249932E1  -1.020795031512985E2  -6.879144112569137   1.588172410123032E1  -6.905642535429640  -1.308040218177294E1  -2.155756106227969E1  -5.699734078518434E1  
 1.337652811735941E11   -2.281075728194676E1  -1.143697509276567E2  -6.819564203218548  -8.631598321774570  -6.850765224291358  -3.790765428781938E1  -2.553072722880814E1  -6.849173324942819E1  
 1.337775061124694E11   -2.644046515350774E1  -1.120281985193595E2  -6.781631668208196  -3.340317186874319E1  -6.799057972986206  -6.282321668301392E1  -3.173850883977846E1  -5.257630254174589E1  
 1.337897310513447E11   -2.762061764244725E1  -8.801610395441362E1  -6.779773165195933  -5.835190226435677E1  -6.793056003452864  -8.761261833080354E1  -2.989901816194422E1  -3.503838986656817  
 1.338019559902201E11   -2.475328223245099E1  -8.032376817639316E1  -6.772330783248074  -8.282223514364574E1  -6.796369910091908  -1.122191444953357E2  -2.572063091932777E1  -4.256474474043557E-1  
 1.338141809290954E11   -2.263157754606849E1  -9.101749709191104E1  -6.779699499616648  -1.075945430840543E2  -6.795410705856891  -1.371834952782743E2  -2.383897076939326E1  -1.202308600936394E1  
 1.338264058679707E11   -2.184521706681714E1  -1.097027346493257E2  -6.788739707437014  -1.320487613257765E2  -6.794805483662218  -1.614315704549007E2  -2.345000082623423E1  -2.464675080268905E1  
 1.338386308068460E11   -2.236908794754458E1  -1.331979221584554E2  -6.773585977314409  -1.565847740147115E2  -6.778268559639693   1.737296606228363E2  -2.421718356690457E1  -3.301443906453768E1  
 1.338508557457213E11   -2.455677269209064E1  -1.604342751499927E2  -6.755630665769822   1.782471769200899E2  -6.765194554733720   1.491860240892274E2  -2.544158823479113E1  -3.271237719237647E1  
 1.338630806845966E11   -2.896293804342773E1   1.640623895924756E2  -6.744102803340230   1.536659784980623E2  -6.758571874486901   1.246810884760118E2  -2.557693213669293E1  -2.411045537777333E1  
 1.338753056234719E11   -3.435976824707932E1   8.597122587009146E1  -6.763297711011195   1.291632101426136E2  -6.763114946379235   9.954273536261736E1  -2.397545955666126E1  -1.944355749935190E1  
 1.338875305623472E11   -2.972131132095175E1   3.307056127475444  -6.781339810952435   1.042904828492903E2  -6.783550089621924   7.499040452941722E1  -2.216360390092215E1  -2.624491190595933E1  
 1.338997555012225E11   -2.578723679517167E1  -3.438603094971371E1  -6.805228329136952   7.976668349451063E1  -6.805326428367025   5.057769257575574E1  -2.118755334084862E1  -3.825259764786966E1  
 1.339119804400978E11   -2.393875471559206E1  -6.353224959768082E1  -6.803564538063500   5.546637061268609E1  -6.805503814424100   2.605644278946197E1  -2.118731834137761E1  -5.350667783348833E1  
 1.339242053789731E11   -2.387906458627145E1  -9.045297039077025E1  -6.785413554150568   3.081397862233879E1  -6.803057183278939   1.645986969097959  -2.228062044553300E1  -6.939046743182126E1  
 1.339364303178484E11   -2.577253939766659E1  -1.159808707813317E2  -6.746870089228203   6.425286372329000  -6.763979066103450  -2.318956366492052E1  -2.503099072608742E1  -8.118033615361043E1  
 1.339486552567237E11   -3.028859255515710E1  -1.397566776691802E2  -6.723397797441801  -1.833997911476240E1  -6.723710182768026  -4.769187583055248E1  -2.973197635519551E1  -7.778261252811630E1  
 1.339608801955990E11   -5.095403209408319E1  -1.533272401342202E2  -6.722531367907532  -4.342887674833915E1  -6.732552555229699  -7.271000394340500E1  -3.113235945402999E1  -3.421143583311587E1  
 1.339731051344743E11   -3.162898754812263E1  -1.018461068924786E1  -6.737036704655440  -6.813947069809055E1  -6.749143286007266  -9.731331245392128E1  -2.586212797594163E1  -2.067566884430773E1  
 1.339853300733496E11   -2.568875285742680E1  -3.246120615154101E1  -6.792982808690672  -9.306652643536030E1  -6.774805597783629  -1.220429002426925E2  -2.282078729893226E1  -3.188345639465722E1  
 1.339975550122250E11   -2.301905969730035E1  -5.574865714965482E1  -6.811861354582828  -1.176255878054521E2  -6.822073612262695  -1.465318940686828E2  -2.135495178290113E1  -4.850592830580455E1  
 1.340097799511003E11   -2.215893531678984E1  -7.839864940496163E1  -6.834558341180195  -1.422427733773773E2  -6.825856540402321  -1.707705033755742E2  -2.114412717583116E1  -6.723021121149623E1  
 1.340220048899756E11   -2.265516569892221E1  -9.969314995676348E1  -6.814374471047320  -1.665394168365251E2  -6.804696786364501   1.648187195720528E2  -2.215368146518782E1  -8.556032812434756E1  
 1.340342298288509E11   -2.441425289603518E1  -1.193287267969423E2  -6.769539064868146   1.690172952351234E2  -6.764966069126841   1.401219138895347E2  -2.477549441980332E1  -1.006839465456739E2  
 1.340464547677262E11   -2.840265029564875E1  -1.369873476579942E2  -6.730400691252987   1.445483179164622E2  -6.734389728634523   1.155747510661879E2  -2.946786226470411E1  -1.036895102551254E2  
 1.340586797066015E11   -3.901218880463329E1  -1.263904837795721E2  -6.721149359306199   1.191059318139760E2  -6.729241939658388   9.069168823677218E1  -3.260426135924099E1  -6.366609259343051E1  
 1.340709046454768E11   -3.238433330261441E1  -3.567094378967353E1  -6.744022339807638   9.448009646847986E1  -6.742711145373028   6.581288816272431E1  -2.776428043984509E1  -4.488972453426146E1  
 1.340831295843521E11   -2.600101201014617E1  -4.687261243624369E1  -6.773284953603807   6.997970983754433E1  -6.767280542330373   4.123825422460561E1  -2.440478006286713E1  -5.845063260530485E1  
 1.340953545232274E11   -2.338746056958637E1  -6.458662850570451E1  -6.803840669696272   4.522341805036207E1  -6.801961598900871   1.670054339864919E1  -2.311778461308005E1  -7.949009976259968E1  
 1.341075794621027E11   -2.244590999376778E1  -8.184539026829556E1  -6.808686782661930   2.091814858641575E1  -6.798656188231834  -7.555462825008937  -2.315833015379148E1  -1.052953871302775E2  
 1.341198044009780E11   -2.268045454589464E1  -9.586227528533658E1  -6.781096150526976  -3.522115501882379  -6.775492068167498  -3.214774761522059E1  -2.445900640782787E1  -1.367823201768904E2  
 1.341320293398533E11   -2.350744074354143E1  -1.051615785952818E2  -6.744840232424711  -2.816869468078804E1  -6.733473445669968  -5.655675616153619E1  -2.673726926151976E1  -1.792296077184903E2  
 1.341442542787286E11   -2.465163809836465E1  -1.083706321167680E2  -6.713341228662135  -5.303524896242877E1  -6.708350534878428  -8.121340993476562E1  -2.800418451595713E1   1.209299405393149E2  
 1.341564792176039E11   -2.505715987065834E1  -1.026867922644055E2  -6.712309342152682  -7.807841828607144E1  -6.697927398361284  -1.059347927905097E2  -2.598537575147019E1   6.496464736647207E1  
 1.341687041564792E11   -2.378594184691302E1  -1.010246699840231E2  -6.743366609994300  -1.026710268905900E2  -6.728742702760056  -1.306913805348046E2  -2.376690485108829E1   2.583049841420052E1  
 1.341809290953545E11   -2.229974379028329E1  -1.087636842847277E2  -6.766065433266569  -1.268452882576564E2  -6.760618770184582  -1.557622357118742E2  -2.266015623782110E1  -4.573800672593705  
 1.341931540342298E11   -2.166650730127102E1  -1.230396327753277E2  -6.797475246039290  -1.516825671122417E2  -6.781091151885472   1.799389198604537E2  -2.275447432634926E1  -2.948048936356923E1  
 1.342053789731051E11   -2.216844531071030E1  -1.400785212893125E2  -6.781258932149247  -1.757416131301904E2  -6.757328510046041   1.556346294904690E2  -2.431047243348010E1  -4.868033935903923E1  
 1.342176039119804E11   -2.392486103704833E1  -1.567257511859047E2  -6.715676172026029   1.597329948085062E2  -6.698414031073227   1.309226085674305E2  -2.762721048546914E1  -5.756265356722620E1  
 1.342298288508557E11   -2.754307548928597E1  -1.709094704816138E2  -6.678954673590296   1.350811844313803E2  -6.665383540472934   1.060962176928840E2  -3.167677897706298E1  -3.557108528723228E1  
 1.342420537897311E11   -3.510717718891486E1  -1.550723402552027E2  -6.679058404555287   1.102124141213989E2  -6.659526506017017   8.099377070396200E1  -2.803301401027293E1  -1.551828477844965  
 1.342542787286064E11   -3.137019547645953E1  -8.973663348935624E1  -6.693015768111613   8.523349267471198E1  -6.669489965878425   5.609839065510640E1  -2.366053711500322E1  -5.885085340590763  
 1.342665036674817E11   -2.548751493731292E1  -9.516919014942408E1  -6.746321319912776   6.056210919429836E1  -6.730800105042632   3.159607741495868E1  -2.105968476636446E1  -2.078756151961787E1  
 1.342787286063570E11   -2.261457861059310E1  -1.134894603315780E2  -6.797869404658584   3.593267149903888E1  -6.788395775310050   7.089212399999031  -2.001881588181297E1  -3.813210158480149E1  
 1.342909535452323E11   -2.138242425895459E1  -1.363101944085742E2  -6.817345548955142   1.151783263733358E1  -6.817718584062430  -1.720954826475549E1  -2.016311491926396E1  -5.448094667450710E1  
 1.343031784841076E11   -2.147238263174335E1  -1.601065246437367E2  -6.767229571339712  -1.274636562050243E1  -6.781515863512204  -4.131506619061487E1  -2.113272579369598E1  -6.688565673328505E1  
 1.343154034229829E11   -2.271086162503251E1   1.742626661198883E2  -6.707131694590667  -3.707730970665723E1  -6.715728208939424  -6.590159788123550E1  -2.265805878005115E1  -7.511757502691273E1  
 1.343276283618582E11   -2.536603512273694E1   1.449398117626233E2  -6.666269779961197  -6.197290780857811E1  -6.684380169628382  -9.097732917870968E1  -2.462582352988163E1  -7.484517353258856E1  
 1.343398533007335E11   -3.041995147153942E1   1.039710937055706E2  -6.669691748125168  -8.683964330801949E1  -6.660845467064389  -1.157461857991977E2  -2.532013589782548E1  -6.477036364377777E1  
 1.343520782396088E11   -3.490567215813496E1   1.527671268678874E1  -6.672223913575279  -1.118070154690122E2  -6.691176743387829  -1.406313152475163E2  -2.409464792965415E1  -5.912460656808962E1  
 1.343643031784841E11   -3.027213103499178E1  -5.836471363907599E1  -6.720621859765862  -1.363574330789934E2  -6.718564123199458  -1.654781526367462E2  -2.284094024663408E1  -6.459431287891781E1  
 1.343765281173594E11   -2.744708055865796E1  -9.674975891848249E1  -6.760176762770645  -1.605878774629344E2  -6.783102252764059   1.698686988427264E2  -2.265316109836183E1  -7.702646804148030E1  
 1.343887530562347E11   -2.709563157319936E1  -1.235314459081685E2  -6.732853433275420   1.751233420520404E2  -6.760002502269267   1.456579887743193E2  -2.416287955343086E1  -8.858831779421489E1  
 1.344009779951100E11   -2.845953703278251E1  -1.492407289642597E2  -6.672223939679419   1.508946110617194E2  -6.674832006397485   1.209704043559734E2  -2.722232799327249E1  -8.844937393789894E1  
 1.344132029339853E11   -3.328046403801390E1   1.798719261391076E2  -6.643951048126633   1.259039337451613E2  -6.653157675830099   9.569160105799043E1  -2.982774223806289E1  -6.373349779454806E1  
 1.344254278728606E11   -4.645684002133995E1   2.108225953911996E1  -6.648426660704232   1.007680259302889E2  -6.649115063259931   7.096522980943409E1  -2.657899276276502E1  -3.777769382131840E1  
 1.344376528117360E11   -2.986203315843371E1  -3.580711529922996E1  -6.693016722771638   7.566438699827593E1  -6.698257195403230   4.570237537551360E1  -2.259928715654883E1  -3.969797371980411E1  
 1.344498777506113E11   -2.465305518822258E1  -6.497399626767978E1  -6.761585340801593   5.131970302723452E1  -6.760348489146737   2.103632026563666E1  -2.018238725536603E1  -5.215951153333796E1  
 1.344621026894866E11   -2.221588662623374E1  -9.002573614381619E1  -6.836511860458825   2.689551387109788E1  -6.840467273523808  -3.476460093504483  -1.911091182759825E1  -6.881313257593303E1  
 1.344743276283619E11   -2.134608290524915E1  -1.133265047654300E2  -6.861393706947071   2.908758964466123  -6.861416549788027  -2.758165732138249E1  -1.922518866305711E1  -8.704464130342466E1  
 1.344865525672372E11   -2.148049218259654E1  -1.347507407346855E2  -6.807506931172935  -2.133828103327947E1  -6.812117409303768  -5.134100090973053E1  -2.064651577268376E1  -1.026594665303732E2  
 1.344987775061125E11   -2.285791049640743E1  -1.573390297201802E2  -6.741059065503885  -4.634351497182523E1  -6.751982170505220  -7.620862127314977E1  -2.327657574762223E1  -1.124433898211880E2  
 1.345110024449878E11   -2.640707810093720E1  -1.764709324766442E2  -6.710159105504431  -7.070724455578478E1  -6.709152431484804  -1.010280010666167E2  -2.745128953309177E1  -1.070327800036596E2  
 1.345232273838631E11   -3.531385223633801E1  -1.749359265394792E2  -6.694831474366684  -9.581202848503673E1  -6.704434333560928  -1.262173676998888E2  -2.809734656096544E1  -7.005478706333547E1  
 1.345354523227384E11   -3.170577201943414E1  -8.615723494812666E1  -6.736752840650703  -1.207254365234754E2  -6.732262441857538  -1.512011158266195E2  -2.391316246483618E1  -5.977007832577879E1  
 1.345476772616137E11   -2.500102090914045E1  -9.599179825782640E1  -6.797601370913350  -1.454173885648736E2  -6.804741446397867  -1.758194770413264E2  -2.113994410372316E1  -7.036013724407613E1  
 1.345599022004890E11   -2.201167569914744E1  -1.146595803059299E2  -6.849299096816936  -1.698694897898690E2  -6.854279737871188   1.600875694207924E2  -2.014871457260001E1  -8.624203169870651E1  
 1.345721271393643E11   -2.085051220586779E1  -1.352479568139824E2  -6.828235737773942   1.659633193069155E2  -6.806893536234065   1.359077452067693E2  -2.042083972464216E1  -1.005556504461611E2  
 1.345843520782396E11   -2.089851191278832E1  -1.562164778227292E2  -6.780260314334727   1.417082581502979E2  -6.779152763390998   1.115018280316055E2  -2.178860830018684E1  -1.137342294798221E2  
 1.345965770171149E11   -2.243683044921231E1  -1.762773891347687E2  -6.759505255195501   1.169655477120738E2  -6.726939492140040   8.624381079674993E1  -2.477858932214659E1  -1.203452229238872E2  
 1.346088019559902E11   -2.627017505451106E1   1.674676588876379E2  -6.731202385500273   9.190522946270880E1  -6.709695714875890   6.155583065254864E1  -2.892425844688580E1  -1.001271017522719E2  
 1.346210268948655E11   -3.352730494021773E1  -1.708920353296160E2  -6.750265473269549   6.685787351646323E1  -6.736084548648883   3.642033660950762E1  -2.579708247346032E1  -6.449056694234123E1  
 1.346332518337408E11   -2.865945971205921E1  -1.174804692030095E2  -6.822547630556382   4.194870522777001E1  -6.809538355267153   1.179229878886594E1  -2.130578970897761E1  -6.703951580932586E1  
 1.346454767726161E11   -2.329716684956488E1  -1.248699662933651E2  -6.925331785469341   1.774804480678353E1  -6.906018109375138  -1.232389799557161E1  -1.887677522982159E1  -8.206361453320574E1  
 1.346577017114914E11   -2.060359662616637E1  -1.419884732776388E2  -6.929860776780918  -6.256093372171993  -6.928040735532243  -3.637366877348661E1  -1.805225366075248E1  -9.914253009554514E1  
 1.346699266503667E11   -1.907617450441779E1  -1.623266152795887E2  -6.902494222412326  -3.053961350725160E1  -6.871424838869424  -6.034730194884591E1  -1.804565009204283E1  -1.146070456013528E2  
 1.346821515892421E11   -1.877231778115493E1   1.743046950271898E2  -6.855431772527594  -5.513415932652370E1  -6.833269847175580  -8.486973815811517E1  -1.873028835104645E1  -1.296888400348227E2  
 1.346943765281174E11   -1.957010366402889E1   1.500301928540496E2  -6.797558652967214  -7.939774218920483E1  -6.772686169710509  -1.094203922748385E2  -2.039557052948943E1  -1.426818209135659E2  
 1.347066014669927E11   -2.174215563478315E1   1.246827438782500E2  -6.747879970304425  -1.043065731993112E2  -6.723964894153995  -1.341588852750960E2  -2.324997586762227E1  -1.481712561169356E2  
 1.347188264058680E11   -2.621608344137803E1   9.862568485590400E1  -6.729584245402426  -1.293226962626531E2  -6.720534048530883  -1.590737760823604E2  -2.572967097367528E1  -1.348611813183655E2  
 1.347310513447433E11   -3.676659261920911E1   6.496091538407184E1  -6.764834485602386  -1.539577544916710E2  -6.752696019324231   1.763110575877861E2  -2.428612518770399E1  -1.197727018811770E2  
 1.347432762836186E11   -3.518917239840174E1  -1.089493827757183E2  -6.800933280486128  -1.786052331985183E2  -6.791641554616640   1.518799393714944E2  -2.249550381931529E1  -1.258462666819698E2  
 1.347555012224939E11   -2.718787173844732E1  -1.388792280619299E2  -6.740172192952726   1.572786955825402E2  -6.747185192107649   1.277902177265841E2  -2.217091082791466E1  -1.360547894818476E2  
 1.347677261613692E11   -2.422609860635273E1  -1.661500662423693E2  -6.677539275776431   1.324324803325196E2  -6.686615263552476   1.028880011125288E2  -2.256357847496216E1  -1.472247329229560E2  
 1.347799511002445E11   -2.367910552030046E1   1.678450694697686E2  -6.657153652446071   1.072521342206833E2  -6.664977912686605   7.829898445973946E1  -2.396611061942318E1  -1.592363189692194E2  
 1.347921760391198E11   -2.514093602288240E1   1.408508824886755E2  -6.646125977839592   8.258735146105214E1  -6.654549199649460   5.359353285868126E1  -2.736585335563065E1  -1.669877531186220E2  
 1.348044009779951E11   -2.935976180295780E1   1.149360709137386E2  -6.643991239983045   5.729183557731691E1  -6.650297488640302   2.867431059269946E1  -3.225929537225463E1  -1.417189557564210E2  
 1.348166259168704E11   -4.429301802758920E1   7.707345935773516E1  -6.693224304559522   3.263884228307493E1  -6.700563147008124   3.739944237449017  -2.816273292881263E1  -1.017951812524750E2  
 1.348288508557457E11   -3.303653304843927E1  -1.048010104605673E2  -6.771541398782119   7.792021333939039  -6.793595839032140  -2.079183437346526E1  -2.353968393271242E1  -1.106174294689558E2  
 1.348410757946210E11   -2.616460751269864E1  -1.273348806823763E2  -6.795841134036540  -1.611288907707821E1  -6.812141228185507  -4.463986694894940E1  -2.185639906137953E1  -1.291281521898144E2  
 1.348533007334963E11   -2.288181591022295E1  -1.511231597798825E2  -6.749865115016524  -4.071786653242218E1  -6.766643651855629  -6.913625033347466E1  -2.156308960409533E1  -1.452986860713573E2  
 1.348655256723716E11   -2.148801708730747E1  -1.760842201382940E2  -6.729390623604398  -6.518432244876260E1  -6.738055865197386  -9.398367552115583E1  -2.195778838130928E1  -1.626073351247933E2  
 1.348777506112470E11   -2.159982240598072E1   1.605585116494025E2  -6.698404349396685  -8.966014276637429E1  -6.731626044121493  -1.189461506015249E2  -2.352138500969384E1   1.784942306606391E2  
 1.348899755501223E11   -2.314755844213258E1   1.384586881886136E2  -6.681245910491028  -1.145199276646507E2  -6.708720172850920  -1.434820355956215E2  -2.704405839625216E1   1.609939955718158E2  
 1.349022004889976E11   -2.661058237760645E1   1.200972954559298E2  -6.684898011206977  -1.394096047443838E2  -6.719892174653018  -1.684513666434474E2  -3.552288746325171E1   1.609413192849004E2  
 1.349144254278729E11   -3.346719062669953E1   1.174895842189027E2  -6.720483245942885  -1.642696412960535E2  -6.757486780144403   1.672453052359291E2  -3.343419335000440E1  -1.132009466049017E2  
 1.349266503667482E11   -3.585520014975398E1  -1.575758320195894E2  -6.760475464724355   1.715810852653699E2  -6.785559805130278   1.428620457276764E2  -2.743784410874295E1  -1.249052813712818E2  
 1.349388753056235E11   -2.724931280008266E1  -1.538652008326049E2  -6.723463106366785   1.470630875414801E2  -6.742745168075503   1.180634803804535E2  -2.555718213528316E1  -1.425656590253590E2  
 1.349511002444988E11   -2.370156698699789E1  -1.719570329113321E2  -6.713272320030558   1.224418424752343E2  -6.724796438928069   9.313412276801444E1  -2.495869387647013E1  -1.614848747146705E2  
 1.349633251833741E11   -2.230756656424238E1   1.679645731834127E2  -6.714970054125680   9.808338960099748E1  -6.730858378592996   6.816486201905715E1  -2.572025313651378E1   1.756196838431156E2  
 1.349755501222494E11   -2.235823788010528E1   1.488842258577655E2  -6.714704283324343   7.336043765981857E1  -6.738494656740405   4.368285545312081E1  -2.834513317183188E1   1.463540197817030E2  
 1.349877750611247E11   -2.362769237262388E1   1.326280428912437E2  -6.707199717461175   4.839442780978314E1  -6.744919787193458   1.892464261016864E1  -3.439672399918137E1   9.921908231695171E1  
 1.350000000000000E11   -2.611393026042481E1   1.237199351027992E2  -6.757800774669494   2.391137225366433E1  -6.790160941457989  -5.858443496704304  -3.647234326576568E1  -1.976656784175475E1  
 1.350122249388753E11   -2.913219933435245E1   1.284733304199919E2  -6.796111566568544  -4.163988273849409E-1  -6.833995280840689  -3.018305242807097E1  -3.044546277078559E1  -7.703312008340755E1  
 1.350244498777506E11   -2.993397142570646E1   1.544246035059714E2  -6.762439630054303  -2.476592578600891E1  -6.794169272153286  -5.419444499937113E1  -2.823972367997231E1  -1.011514731135968E2  
 1.350366748166259E11   -2.664207762491987E1   1.633421498860512E2  -6.710971834746894  -4.914320133552383E1  -6.737394214987870  -7.892500399703354E1  -2.709013110972871E1  -1.208937339624152E2  
 1.350488997555012E11   -2.445279074924028E1   1.545711981987805E2  -6.689472576019997  -7.408346974985011E1  -6.735241369847793  -1.042924286095368E2  -2.752726049092201E1  -1.429081694433204E2  
 1.350611246943765E11   -2.386537534745630E1   1.409780787596070E2  -6.694243356656432  -9.874168709881232E1  -6.718473371323354  -1.290284330132222E2  -3.075356171891832E1  -1.666450048898840E2  
 1.350733496332518E11   -2.454031801542178E1   1.289748844303909E2  -6.697168679086588  -1.232798253755103E2  -6.725659676575595  -1.537597697476977E2  -4.471083187926201E1  -1.762192684734162E2  
 1.350855745721271E11   -2.636223882259368E1   1.241666485513978E2  -6.746048266608423  -1.483820457893347E2  -6.772238540322025  -1.787452362453401E2  -3.192988839620665E1  -4.656384554783646E1  
 1.350977995110024E11   -2.805588672151219E1   1.330261159689732E2  -6.806523762181369  -1.728700864572671E2  -6.825076541984839   1.569095557805625E2  -2.548551555698797E1  -7.237233946406890E1  
 1.351100244498778E11   -2.715083949676520E1   1.508008948604910E2  -6.794162260472426   1.629258174287677E2  -6.826134454754889   1.325062155566325E2  -2.305895201898772E1  -9.199100527981670E1  
 1.351222493887531E11   -2.397200606116255E1   1.542352960615395E2  -6.758332426359795   1.386434709099565E2  -6.786813678060295   1.079325754304802E2  -2.149746311081525E1  -1.085143663297798E2  
 1.351344743276284E11   -2.152099969762113E1   1.427790042450211E2  -6.751241822589251   1.138003631005324E2  -6.776105424534723   8.315372978880970E1  -2.049911219344148E1  -1.270947568341134E2  
 1.351466992665037E11   -2.035931266734851E1   1.257875893440578E2  -6.755404716475299   8.933276226242884E1  -6.789354406509237   5.854882798676675E1  -2.057548450642659E1  -1.469678413833920E2  
 1.351589242053790E11   -2.034480363332014E1   1.070374388742584E2  -6.754041865372400   6.443193838257385E1  -6.780180081282786   3.399456756922508E1  -2.200700497474132E1  -1.643576071751022E2  
 1.351711491442543E11   -2.153158326156155E1   8.914396992355745E1  -6.760331586171112   3.996918153111282E1  -6.796725336396634   9.046448025996288  -2.501601896266600E1  -1.732538582771981E2  
 1.351833740831296E11   -2.427222649641824E1   7.454489478383755E1  -6.793417882695271   1.526145584131725E1  -6.815047079760124  -1.549126512637441E1  -2.756420719927172E1  -1.588471131874437E2  
 1.351955990220049E11   -2.976187727233378E1   7.274338160918906E1  -6.779366008384825  -8.884162385557781  -6.820247931720702  -4.000003610890465E1  -2.634217947740588E1  -1.438715206521949E2  
 1.352078239608802E11   -3.193988098813831E1   1.347293054266116E2  -6.761234751350526  -3.330392623203324E1  -6.784157130637981  -6.514799060251488E1  -2.420219746721127E1  -1.394675919460368E2  
 1.352200488997555E11   -2.469165400025351E1   1.449173671504774E2  -6.746629326441373  -5.809603212594249E1  -6.798079545911136  -9.002956905437365E1  -2.171767836011954E1  -1.457860946126352E2  
 1.352322738386308E11   -2.108922772901330E1   1.291877479230854E2  -6.789240499421924  -8.306392933716060E1  -6.833940286151398  -1.145099554890859E2  -2.015997104727249E1  -1.605347083597704E2  
 1.352444987775061E11   -1.925435231719113E1   1.094962356240028E2  -6.847164797767555  -1.073671130596730E2  -6.893478446802417  -1.392304457409445E2  -1.971071542447469E1  -1.786311803774281E2  
 1.352567237163814E11   -1.868345788209427E1   8.839885610043579E1  -6.874980904435764  -1.320328106870356E2  -6.928095555676555  -1.635813564470583E2  -2.049953686927679E1   1.644124756460672E2  
 1.352689486552567E11   -1.915558782014810E1   6.700410971343817E1  -6.920268339624458  -1.564602674690367E2  -6.963031653950795   1.721775588576389E2  -2.221449217164423E1   1.526686522112545E2  
 1.352811735941320E11   -2.075068654722415E1   4.496330170186595E1  -6.927814649791500   1.799045189732411E2  -6.965583378987163   1.480305869096221E2  -2.376396684492127E1   1.494296644835157E2  
 1.352933985330073E11   -2.421219465221887E1   2.264816793861706E1  -6.836403747938737   1.558335507659835E2  -6.907030411433309   1.237963917667410E2  -2.505453029747935E1   1.469617511762286E2  
 1.353056234718826E11   -3.247711085513097E1   3.216838942497691  -6.762576959856033   1.310210622093001E2  -6.813919095166861   9.899905684921599E1  -2.620172536288607E1   1.523671565129105E2  
 1.353178484107580E11   -3.619068855220755E1   1.408031468760794E2  -6.735578716247910   1.060627946061787E2  -6.785627749062762   7.414811711273319E1  -2.527812165787393E1   1.589159297247633E2  
 1.353300733496333E11   -2.612288560274615E1   1.243187500913939E2  -6.753880700177145   8.096964141992594E1  -6.791599553971944   4.900259641301747E1  -2.376984353417647E1   1.530192916208837E2  
 1.353422982885086E11   -2.264730585897990E1   1.025775407327244E2  -6.778529236597252   5.630999345291351E1  -6.829922328642885   2.455642973492032E1  -2.322462518738838E1   1.385579771764290E2  
 1.353545232273839E11   -2.140289177160043E1   8.070387306398266E1  -6.828151174599237   3.170401829004750E1  -6.856263872509846  -1.317167722110522E-1  -2.415472925108178E1   1.240253763446231E2  
 1.353667481662592E11   -2.151542985119667E1   5.818889344398185E1  -6.847068898559916   7.230932183516695  -6.894493297122454  -2.426939333621263E1  -2.597688259898784E1   1.174722880867354E2  
 1.353789731051345E11   -2.330583851926973E1   3.588474635651085E1  -6.780913290556930  -1.669286303023057E1  -6.842339985844263  -4.852055456485337E1  -2.747362183161942E1   1.144030527057745E2  
 1.353911980440098E11   -2.754123034438126E1   1.602461433095028E1  -6.720786525010284  -4.135035689648460E1  -6.765143125612170  -7.323495645205657E1  -2.983738587632187E1   1.182561047917660E2  
 1.354034229828851E11   -3.993264858481066E1   2.779666993287923E1  -6.685104793489706  -6.640336374751126E1  -6.718172771661756  -9.812570067692859E1  -2.995504191505140E1   1.393957978804615E2  
 1.354156479217604E11   -3.056618273712430E1   1.261246795182440E2  -6.668179569515690  -9.096294177274554E1  -6.716611168592695  -1.232399596632188E2  -2.653511333234803E1   1.450288909433845E2  
 1.354278728606357E11   -2.440240044557074E1   1.100747862093148E2  -6.705530365472926  -1.162575115757903E2  -6.763079280233385  -1.482208081676904E2  -2.408800538957649E1   1.320173114295801E2  
 1.354400977995110E11   -2.170277378654416E1   8.985499540075287E1  -6.755350420208342  -1.408404229947680E2  -6.807626783251273  -1.730440886262159E2  -2.322849599572943E1   1.137592311452207E2  
 1.354523227383863E11   -2.060774378692720E1   6.916216069793812E1  -6.797269245400093  -1.652520559002704E2  -6.854303977027253   1.630019123005866E2  -2.350966468234820E1   9.621141318565933E1  
 1.354645476772616E11   -2.077777726886610E1   4.854679471532371E1  -6.794715136949600   1.706572349885992E2  -6.856801959701670   1.387704576256563E2  -2.404976783017959E1   7.963284415674130E1  
 1.354767726161369E11   -2.219000871535492E1   2.954614250733420E1  -6.739133068280744   1.461711664450651E2  -6.802229540285461   1.140231432378397E2  -2.538573748391320E1   5.944038814053801E1  
 1.354889975550122E11   -2.521285322614897E1   1.584694120441930E1  -6.683133755488675   1.214158558204619E2  -6.748554028760201   8.967896272011122E1  -2.873545026506503E1   3.694294962092165E1  
 1.355012224938875E11   -3.018652762690645E1   2.184069415158028E1  -6.654266434670516   9.638113975518475E1  -6.700783253823896   6.518027218170741E1  -3.655146401960776E1   2.338482404716071E1  
 1.355134474327628E11   -3.054155626851082E1   6.370571954839974E1  -6.651533744403919   7.137254744520433E1  -6.723563423886671   3.976970741914587E1  -4.081888829336213E1   1.255931682705621E2  
 1.355256723716381E11   -2.597056836575907E1   7.111702449205458E1  -6.707269784373751   4.655104886100325E1  -6.759844470834311   1.496832738077193E1  -3.245665369950328E1   1.229730656941319E2  
 1.355378973105134E11   -2.323478901982572E1   5.827124714386185E1  -6.759692975132839   2.154819331400930E1  -6.821982182013547  -9.451302670665685  -3.013504591184846E1   1.078260419191547E2  
 1.355501222493888E11   -2.225270080043727E1   3.992897463243443E1  -6.805057887244743  -2.682776489301992  -6.848186597640361  -3.373651167629587E1  -2.911897603619385E1   9.576175930087054E1  
 1.355623471882641E11   -2.279634387383983E1   2.016133002010364E1  -6.746741161733866  -2.670549019300949E1  -6.802372012551658  -5.793917694019078E1  -2.894004796773852E1   7.936350397685730E1  
 1.355745721271394E11   -2.492998957370894E1   1.289201157483386  -6.713920227647388  -5.131894923277161E1  -6.753726398264332  -8.256319374220936E1  -3.087607194753730E1   6.247816880916348E1  
 1.355867970660147E11   -3.013302653025420E1  -1.058764681919543E1  -6.672744210759396  -7.632739762939076E1  -6.720909209151100  -1.072916002811534E2  -3.630604842807585E1   6.201063206183502E1  
 1.355990220048900E11   -3.804790110712855E1   4.411048607040418E1  -6.654017518067072  -1.013088561636115E2  -6.708829809464540  -1.322474407149788E2  -3.590465018428596E1   1.219077155435475E2  
 1.356112469437653E11   -2.872913972890373E1   8.249514263028283E1  -6.690672459910493  -1.261930402964409E2  -6.749579821303469  -1.568761030561149E2  -2.954866476879338E1   1.225458409938124E2  
 1.356234718826406E11   -2.407053033771499E1   6.783489430766602E1  -6.759540806592087  -1.508542013825403E2  -6.795223719576364   1.781360536918138E2  -2.671673606122004E1   1.064796036548875E2  
 1.356356968215159E11   -2.189983009983853E1   4.727503896959262E1  -6.800068324017772  -1.752930835703320E2  -6.833006438071326   1.537475668956674E2  -2.537577969536017E1   9.114106116280081E1  
 1.356479217603912E11   -2.130404555857195E1   2.529178663675513E1  -6.782979923530514   1.604328214719171E2  -6.833062161344394   1.295355849739622E2  -2.465136307455154E1   7.551587145987982E1  
 1.356601466992665E11   -2.207045953708709E1   2.890561320948631  -6.744681053291366   1.360152786878555E2  -6.790684808267039   1.050566479033874E2  -2.490991533568803E1   5.822279618690524E1  
 1.356723716381418E11   -2.460999569601919E1  -2.007063439561675E1  -6.697083556752224   1.114546120046566E2  -6.748914079907228   8.053845165759049E1  -2.637700498858625E1   4.493753437797219E1  
 1.356845965770171E11   -3.038823119988415E1  -4.555637738145407E1  -6.673166253119082   8.642844347171791E1  -6.726898197764101   5.560282582762667E1  -2.893591502728159E1   4.470323501992194E1  
 1.356968215158924E11   -4.543192093853833E1   1.414870314414935E2  -6.680453434725785   6.144575939276317E1  -6.731454919191255   3.075307093012347E1  -2.931421785517048E1   6.215105289011686E1  
 1.357090464547677E11   -2.790366506122844E1   9.593319263153246E1  -6.747652738567366   3.648697152528327E1  -6.797496835965758   5.956342461675852  -2.665551934111457E1   6.835772821601661E1  
 1.357212713936430E11   -2.298958823192247E1   7.154354500874688E1  -6.820104297627389   1.191990531215538E1  -6.851965265371630  -1.847585553031700E1  -2.438339567166649E1   6.072849964961870E1  
 1.357334963325183E11   -2.077727455784419E1   4.868757706360699E1  -6.838927991435711  -1.228424031025590E1  -6.883539471639065  -4.236889444232548E1  -2.268611938172350E1   4.749285837819277E1  
 1.357457212713937E11   -1.999808605432662E1   2.727258263983715E1  -6.830792591651078  -3.618108140273982E1  -6.867176977814130  -6.696008342127462E1  -2.166677437165367E1   2.960757221029711E1  
 1.357579462102690E11   -2.032140923643182E1   7.055033699486015  -6.775835330867405  -6.088146691339446E1  -6.829558382638441  -9.126491746845333E1  -2.162410046633845E1   9.362142905335631  
 1.357701711491443E11   -2.179708652753263E1  -1.118346340475004E1  -6.727525995598239  -8.541775167465895E1  -6.775801277197961  -1.158097649819708E2  -2.271991476497551E1  -1.102611292849378E1  
 1.357823960880196E11   -2.473804137295091E1  -2.405683623890785E1  -6.678999735391984  -1.099903166028445E2  -6.723788232304432  -1.406791773925884E2  -2.515165211347642E1  -2.918885245978323E1  
 1.357946210268949E11   -2.952730451029029E1  -1.850751183871356E1  -6.676347664608629  -1.351166684532894E2  -6.716872605614589  -1.653284825565091E2  -2.928797044881373E1  -3.901252685634221E1  
 1.358068459657702E11   -2.978882247359366E1   2.051015251447723E1  -6.706037130196255  -1.599454973714821E2  -6.744751570768154   1.698663509824981E2  -3.453469775183504E1  -2.364843173133146E1  
 1.358190709046455E11   -2.573902462805685E1   2.695808879070574E1  -6.720994361676196   1.755011172166946E2  -6.771240039190175   1.450984768573980E2  -3.311344123685235E1   1.858440653148175E1  
 1.358312958435208E11   -2.351530132317121E1   1.513047265753690E1  -6.727986651121465   1.509219534198225E2  -6.769739030290555   1.207232563552687E2  -2.895475957926777E1   1.751021245535299E1  
 1.358435207823961E11   -2.285118638312942E1  -4.037344498800584E-1  -6.706999483052371   1.262950850175671E2  -6.761231385215469   9.635530924437219E1  -2.701784776340947E1  -1.568207568533482E-2  
 1.358557457212714E11   -2.378911196128241E1  -1.573939322374593E1  -6.671776971624161   1.019088922178466E2  -6.727099347888819   7.150999603203032E1  -2.698457282500856E1  -2.155298169893652E1  
 1.358679706601467E11   -2.634960147408835E1  -2.641135265188399E1  -6.652815752413070   7.674269946500758E1  -6.708174770270821   4.661062309132816E1  -2.931654883598300E1  -4.710961175070329E1  
 1.358801955990220E11   -3.099739168584085E1  -1.456055325616783E1  -6.669015196441147   5.217649197987311E1  -6.704345345041891   2.171062257373957E1  -3.566780123299063E1  -7.565712444769245E1  
 1.358924205378973E11   -2.934755803779975E1   2.857263799087370E1  -6.705972481246792   2.715129680432048E1  -6.750938489084424  -3.288374673683046  -4.502575698719148E1   1.037346299838025E2  
 1.359046454767726E11   -2.453657558727139E1   3.019111055546642E1  -6.777385869737342   2.644322717669718  -6.810487963928115  -2.742432930140114E1  -3.160520417196229E1   7.179060618782101E1  
 1.359168704156479E11   -2.176774669603632E1   1.700750261100571E1  -6.790729841124657  -2.141050273842673E1  -6.824208834606104  -5.181685839816192E1  -2.679969986670514E1   4.924495496519160E1  
 1.359290953545232E11   -2.048608058341776E1   2.078474408930877E-1  -6.795718759304489  -4.597068903994173E1  -6.829065520051447  -7.642474084750185E1  -2.453005460737696E1   2.482793295403662E1  
 1.359413202933985E11   -2.038352449067746E1  -1.719190763639890E1  -6.768830069062543  -7.035339820987196E1  -6.789717756071580  -1.011064315250851E2  -2.383836520735343E1   1.110263089857841E-1  
 1.359535452322738E11   -2.143798101588455E1  -3.394825160629664E1  -6.735532299646760  -9.501989760643689E1  -6.749081119870191  -1.253745665769423E2  -2.466712865415112E1  -2.461352773037994E1  
 1.359657701711491E11   -2.410894424026298E1  -4.489291325061959E1  -6.694590489835917  -1.200350084466842E2  -6.723477244898879  -1.506129693767053E2  -2.751131655758984E1  -4.958470982890350E1  
 1.359779951100244E11   -2.846403869852093E1  -3.585704980149828E1  -6.716788541264999  -1.447176066348261E2  -6.740718066019610  -1.753940142996565E2  -3.479853944131280E1  -7.812516705924337E1  
 1.359902200488998E11   -2.744759998218676E1   1.777800378822989  -6.761686152960592  -1.694885521500936E2  -6.779580524318725   1.597955017663472E2  -4.022100822344839E1   1.061611742906706E2  
 1.360024449877751E11   -2.302633658449162E1   4.201159819443385  -6.800359694535413   1.661444698410205E2  -6.819289553734404   1.351628772057247E2  -2.835070396670385E1   7.056935727819678E1  
 1.360146699266504E11   -2.043527135581786E1  -8.608375755996176  -6.826101527621685   1.416012428028013E2  -6.842926511481863   1.108405642151515E2  -2.388256959315091E1   4.588161854186495E1  
 1.360268948655257E11   -1.914945838131602E1  -2.566475511459066E1  -6.837688841695711   1.176296794523374E2  -6.867861944384969   8.628007600890636E1  -2.175167827612833E1   2.253208908528393E1  
 1.360391198044010E11   -1.891650506844508E1  -4.491031671894469E1  -6.831388851032867   9.337989812531393E1  -6.852786615995505   6.182237918606674E1  -2.096116995010129E1   6.418222998396470E-1  
 1.360513447432763E11   -1.983001887323789E1  -6.471677486865053E1  -6.793260460684071   6.897859738667938E1  -6.809249145053427   3.725571279999110E1  -2.137654110525863E1  -1.927632517774944E1  
 1.360635696821516E11   -2.245227507773583E1  -8.337709174006203E1  -6.769459098700423   4.434046715368952E1  -6.787103609939287   1.232474883231034E1  -2.292990437663714E1  -3.500262156140646E1  
 1.360757946210269E11   -2.807988938889483E1  -9.152255026453335E1  -6.766666422201507   1.941724488193505E1  -6.796696690876662  -1.228124647919461E1  -2.563743610162714E1  -4.311319507798461E1  
 1.360880195599022E11   -3.371332828151426E1  -3.384062157234727E1  -6.784697284284813  -5.091602489548188  -6.801155754924016  -3.703505152171269E1  -2.870580575162897E1  -3.125227830870876E1  
 1.361002444987775E11   -2.623563504613221E1  -7.536695746837672  -6.810922542120921  -2.952475866689959E1  -6.817061058329432  -6.152271938203988E1  -2.726756918749850E1  -6.849296235886037  
 1.361124694376528E11   -2.195435853649398E1  -1.903911599045217E1  -6.825811276210254  -5.417542235231778E1  -6.849913638873425  -8.605127452143820E1  -2.383202539014566E1  -6.946913798405046  
 1.361246943765281E11   -1.982406910947414E1  -3.742663478076093E1  -6.834803779888617  -7.832281838696689E1  -6.854096636120308  -1.108685375202269E2  -2.164874781154112E1  -2.019803115854853E1  
 1.361369193154034E11   -1.908453859408843E1  -5.716584999492453E1  -6.832587009415586  -1.026669244568968E2  -6.847680613150152  -1.353289418496212E2  -2.070092699994758E1  -3.675376521430989E1  
 1.361491442542787E11   -1.948484294735626E1  -7.673532021648333E1  -6.786126916520154  -1.268872730340155E2  -6.804371255833400  -1.596401538949191E2  -2.083701645915938E1  -5.561375910351122E1  
 1.361613691931540E11   -2.123170934700163E1  -9.484614270703514E1  -6.761168737067687  -1.516551780189394E2  -6.773225121380950   1.753063579909266E2  -2.203583080257014E1  -7.328386898668353E1  
 1.361735941320293E11   -2.443221401642144E1  -1.044876059515332E2  -6.738587952450544  -1.760136533359615E2  -6.762332978104116   1.505457698368263E2  -2.453283363785010E1  -8.910965960869577E1  
 1.361858190709047E11   -2.844032076975185E1  -9.444130060963089E1  -6.736711213498757   1.593571055628053E2  -6.763974569772204   1.257682162943014E2  -2.918706177096892E1  -9.584287993406288E1  
 1.361980440097800E11   -2.790020647094497E1  -6.383228500974285E1  -6.734254530293415   1.347773317715800E2  -6.741075809294412   1.007794390620948E2  -3.393769531152897E1  -6.161647310269326E1  
 1.362102689486553E11   -2.423477455086860E1  -6.082200892055569E1  -6.728374820904894   1.102713428739099E2  -6.772478108171387   7.609278340097801E1  -2.978055741681343E1  -2.906054766706134E1  
 1.362224938875306E11   -2.193735063968972E1  -7.463459198032214E1  -6.750858245837834   8.587237184433911E1  -6.775240231252460   5.145065497682757E1  -2.605183904276895E1  -3.445904860658430E1  
 1.362347188264059E11   -2.104197871919404E1  -9.410316222101666E1  -6.736057052552877   6.113694601683785E1  -6.765376522610697   2.698620819433699E1  -2.440172784035540E1  -4.833451948010946E1  
 1.362469437652812E11   -2.152047590201970E1  -1.158741210775891E2  -6.741259960054867   3.684196849883261E1  -6.769040764373269   2.604353478295507  -2.411868916578549E1  -6.267815525897881E1  
 1.362591687041565E11   -2.334822195468853E1  -1.372055034746686E2  -6.719574202441874   1.236649441266609E1  -6.745767587474558  -2.230673385832787E1  -2.481815032609746E1  -7.456206433235127E1  
 1.362713936430318E11   -2.644239231112408E1  -1.584491485277971E2  -6.693347205836507  -1.224036029063205E1  -6.726979287981946  -4.672158567738922E1  -2.626215227447613E1  -8.135223775447098E1  
 1.362836185819071E11   -3.251039701892544E1   1.762788683307611E2  -6.675632733295205  -3.659891262148617E1  -6.711557195228047  -7.184088589055502E1  -2.747623698135742E1  -7.909287655458410E1  
 1.362958435207824E11   -5.545470068179631E1   4.968025236398958E1  -6.653496404916649  -6.120829428214453E1  -6.707909182220083  -9.652740142279788E1  -2.706935606294615E1  -7.551315506878504E1  
 1.363080684596577E11   -3.385955803429651E1  -4.209814519609193E1  -6.651074342710971  -8.601190610632337E1  -6.692984274733965  -1.211298108774468E2  -2.593233147469705E1  -8.082325145988730E1  
 1.363202933985330E11   -2.994271268598215E1  -6.696615147704772E1  -6.645325040275724  -1.105608407460331E2  -6.677463092283605  -1.458977737894470E2  -2.516634672475634E1  -9.509101606868850E1  
 1.363325183374083E11   -3.000136466617629E1  -9.146885413472830E1  -6.624875765450264  -1.355684904763311E2  -6.666724466649786  -1.705376457378460E2  -2.546096208551753E1  -1.155106328502974E2  
 1.363447432762836E11   -3.381774771699885E1  -1.033566633229974E2  -6.639975020103520  -1.602983990850480E2  -6.672969772757823   1.648898240405033E2  -2.678536597208672E1  -1.417846751506783E2  
 1.363569682151589E11   -3.919193209266534E1  -7.012276743032778E1  -6.628323510448337   1.750291986137117E2  -6.680576570738196   1.401001848290366E2  -2.941233735414599E1  -1.794568135104149E2  
 1.363691931540342E11   -3.321576566382707E1  -2.546094237283261E1  -6.636008286140350   1.501144184854317E2  -6.687006072821877   1.154315081954190E2  -3.178694067269849E1   1.225422732092987E2  
 1.363814180929095E11   -2.758719490429904E1  -3.241147449603954E1  -6.655810447259905   1.255815654045289E2  -6.713638505928511   9.081347341390350E1  -3.031082584699273E1   5.755926261738879E1  
 1.363936430317848E11   -2.436277167766768E1  -5.138671281439763E1  -6.672170171853667   1.005970574195306E2  -6.735983575344757   6.648430342611688E1  -2.744072879661637E1   1.589153937433338E1  
 1.364058679706601E11   -2.280390081572262E1  -7.293274806215386E1  -6.684719647799033   7.590655403411932E1  -6.751258616375706   4.171160650796087E1  -2.577582540675181E1  -1.447527394426901E1  
 1.364180929095355E11   -2.258887617187437E1  -9.819529646454197E1  -6.667895860530750   5.145496966202864E1  -6.752628681770784   1.740521384795736E1  -2.564761822424593E1  -3.947287394112425E1  
 1.364303178484108E11   -2.411613820175534E1  -1.240923249013301E2  -6.670761076655200   2.645714035672258E1  -6.739313508114020  -6.735427111924875  -2.695110562039954E1  -5.979032705845285E1  
 1.364425427872861E11   -2.751703210596800E1  -1.497385283930592E2  -6.652842272344995   1.882249756541546  -6.724793631429377  -3.115801095722115E1  -3.025709303365775E1  -7.122121868971905E1  
 1.364547677261614E11   -3.501699525871776E1   1.754865324723513E2  -6.658939075432908  -2.300506032044376E1  -6.715264951864016  -5.610562592069403E1  -3.464525222663998E1  -4.647283297956047E1  
 1.364669926650367E11   -3.646576598907635E1   2.199579451835236E1  -6.675070756742261  -4.773621165722616E1  -6.737247684298172  -8.068430806151211E1  -3.034531907587533E1  -1.264009346209136E1  
 1.364792176039120E11   -2.729494519851023E1  -1.966709991269542E1  -6.700096603072859  -7.250560611168162E1  -6.772187318543195  -1.050363308298420E2  -2.573866675861100E1  -1.943203166667153E1  
 1.364914425427873E11   -2.330868188713728E1  -4.701845805395273E1  -6.723210527852145  -9.708013238541398E1  -6.806663711539645  -1.295239006635586E2  -2.308082939421598E1  -3.677881838134734E1  
 1.365036674816626E11   -2.141321942592729E1  -7.260391827512788E1  -6.732484457021474  -1.214325463241237E2  -6.815807994906915  -1.537363856196765E2  -2.187927223625562E1  -5.659986512647880E1  
 1.365158924205379E11   -2.082067064034244E1  -9.763253511694242E1  -6.718123256687163  -1.458646288735699E2  -6.790583559483568  -1.780049576566501E2  -2.177597426511774E1  -7.805202418482870E1  
 1.365281173594132E11   -2.146756402346218E1  -1.208447592809047E2  -6.679406678437081  -1.706163475899996E2  -6.751222087558608   1.579995657451799E2  -2.271770695527375E1  -9.940828889251753E1  
 1.365403422982885E11   -2.323488911416188E1  -1.428375984096572E2  -6.639018486027450   1.647098161131405E2  -6.709210999421303   1.332234425197881E2  -2.507736299910009E1  -1.203641168175325E2  
 1.365525672371638E11   -2.672272058723430E1  -1.634792473571130E2  -6.623925974688635   1.395934727462616E2  -6.692661444609161   1.085683789096173E2  -2.971424219299534E1  -1.369713235503339E2  
 1.365647921760391E11   -3.438004820451054E1  -1.708200549424619E2  -6.612426642627473   1.147125410103443E2  -6.674863971915751   8.394517591564878E1  -3.879828397430173E1  -1.167645238248040E2  
 1.365770171149144E11   -3.694061824643237E1  -8.310043573251161E1  -6.635008344213034   9.029451473259927E1  -6.704431998588593   5.931007060173752E1  -3.387238197597340E1  -4.975955710443832E1  
 1.365892420537897E11   -2.894976210359119E1  -8.197883856191365E1  -6.644805240977315   6.540567736654070E1  -6.724681784053416   3.469688236020261E1  -2.869511452960980E1  -6.245579121037334E1  
 1.366014669926650E11   -2.620532178302652E1  -1.019116319387064E2  -6.651698733593617   4.078644335735935E1  -6.723644179164684   1.024962144636326E1  -2.697744037071354E1  -8.495984584364750E1  
 1.366136919315403E11   -2.589399982183801E1  -1.203923290333127E2  -6.633195150797573   1.606869047756736E1  -6.702328019277323  -1.362247968157161E1  -2.709871849207432E1  -1.125446943491206E2  
 1.366259168704157E11   -2.694948162087594E1  -1.369416917847910E2  -6.615474166185493  -8.904039711477772  -6.667399025595203  -3.836502482933727E1  -2.900315994960523E1  -1.476397397682986E2  
 1.366381418092910E11   -2.994445859139166E1  -1.476142510988204E2  -6.590611339122773  -3.369629686312630E1  -6.654657350198266  -6.321947070659592E1  -3.185212511887242E1   1.564750942717346E2  
 1.366503667481663E11   -3.493733892499319E1  -1.255687954176397E2  -6.613581568954700  -5.848271762624635E1  -6.666686666949295  -8.818347701199947E1  -3.050158651329179E1   8.354766414618595E1  
 1.366625916870416E11   -3.046493966553685E1  -8.609617610688314E1  -6.638478918460878  -8.295079633390954E1  -6.704733444617472  -1.129885167829680E2  -2.669898338576501E1   3.533807782491212E1  
 1.366748166259169E11   -2.535296839802722E1  -9.512217007878103E1  -6.690662518417383  -1.076934034135739E2  -6.759760825814023  -1.377645132515470E2  -2.413357230275410E1   2.961592903843833  
 1.366870415647922E11   -2.269137080924735E1  -1.160600777145080E2  -6.744044855999722  -1.324737729630971E2  -6.795649952545566  -1.619868935893980E2  -2.287449927774433E1  -2.297461317947130E1  
 1.366992665036675E11   -2.169836797181964E1  -1.406522556839797E2  -6.726560216303323  -1.566528753039865E2  -6.782575874777390   1.737472754854386E2  -2.288308015666573E1  -4.368152121719628E1  
 1.367114914425428E11   -2.175114346555896E1  -1.644167576302041E2  -6.679748860215783   1.791466483381672E2  -6.730599991461516   1.492698125362822E2  -2.377852022690525E1  -6.031392576714515E1  
 1.367237163814181E11   -2.272031022588888E1   1.684642756425032E2  -6.664089123968740   1.542974960362370E2  -6.692104042664485   1.246117586198250E2  -2.572452487008527E1  -6.814724435008938E1  
 1.367359413202934E11   -2.508021845742062E1   1.363637766549012E2  -6.638727652083912   1.296346581827135E2  -6.679949219190262   9.951004812378581E1  -2.738648288454592E1  -6.085953122953514E1  
 1.367481662591687E11   -2.943117355962647E1   9.226268971626477E1  -6.652074598936057   1.048500902863449E2  -6.693586543739139   7.497615602216446E1  -2.636121211214235E1  -4.704390215225727E1  
 1.367603911980440E11   -3.268387134360947E1   8.241979781085780  -6.685367650398069   8.005223371668022E1  -6.735680843780207   5.005743450535191E1  -2.379418210296544E1  -4.813759054737780E1  
 1.367726161369193E11   -2.860831261521473E1  -6.423111121194935E1  -6.728323531504349   5.566608733295755E1  -6.772727406303870   2.564911040243520E1  -2.199174666985185E1  -5.937348569706320E1  
 1.367848410757946E11   -2.551357071743526E1  -1.065458960807160E2  -6.731493040027820   3.178158046383190E1  -6.780865469923915   1.288898384905910  -2.137970950600601E1  -7.404222577214418E1  
 1.367970660146699E11   -2.414981614527491E1  -1.382747507776187E2  -6.690161533527210   7.567589593953429  -6.734445945922785  -2.298216300614928E1  -2.170817260815417E1  -8.815641057941650E1  
 1.368092909535452E11   -2.387735160988215E1  -1.700223850469055E2  -6.644671848363823  -1.724164967473169E1  -6.671749206182707  -4.760783658992668E1  -2.305107082045241E1  -9.972129112244687E1  
 1.368215158924205E11   -2.480139266316506E1   1.544450890058988E2  -6.603150207880120  -4.215721227413687E1  -6.640895369474123  -7.240744662698957E1  -2.554932948244046E1  -1.026156658226308E2  
 1.368337408312958E11   -2.710989096012779E1   1.097437054460981E2  -6.599955878449401  -6.695848758354886E1  -6.652013937767357  -9.754893484898472E1  -2.733757639803182E1  -8.484812294300114E1  
 1.368459657701711E11   -2.911301626644402E1   4.546229993146683E1  -6.636132888691734  -9.197928760627701E1  -6.687320617075168  -1.223303444493963E2  -2.481337306250321E1  -6.738276265519748E1  
 1.368581907090465E11   -2.735787334963881E1  -2.209391873147920E1  -6.711868372589793  -1.164132774518270E2  -6.758143476973247  -1.474198057125307E2  -2.152826362540430E1  -7.193255183643899E1  
 1.368704156479218E11   -2.444843484995981E1  -6.910979143643473E1  -6.790556158337208  -1.407142153844044E2  -6.817504101589298  -1.716046187111670E2  -1.942268178929803E1  -8.561568083683196E1  
 1.368826405867971E11   -2.228735490405650E1  -1.025784741423064E2  -6.792735117532724  -1.646816428023437E2  -6.845714187696929   1.641271445212124E2  -1.834529890172729E1  -1.022407807623484E2  
 1.368948655256724E11   -2.096659968225107E1  -1.329220667362473E2  -6.768535355538797   1.711965609051825E2  -6.824248983950160   1.396894555434362E2  -1.807315212547765E1  -1.200678069975622E2  
 1.369070904645477E11   -2.058719629658016E1  -1.629389431318861E2  -6.735278388076932   1.469330369605949E2  -6.784479770691224   1.152839773464679E2  -1.855617533726360E1  -1.373765875775492E2  
 1.369193154034230E11   -2.123284512018473E1   1.674436267617531E2  -6.682329392658334   1.225062618098153E2  -6.730131914771127   9.032155081193899E1  -1.983188020468707E1  -1.533567681910509E2  
 1.369315403422983E11   -2.298585227415131E1   1.367968148737613E2  -6.630702186742481   9.794996702374958E1  -6.677897684444857   6.533995981551017E1  -2.197044539989573E1  -1.644341389732679E2  
 1.369437652811736E11   -2.617237289100920E1   1.037339591928573E2  -6.632595271503233   7.333748430197140E1  -6.682487567550679   4.053403481969540E1  -2.446220380640341E1  -1.660399690296648E2  
 1.369559902200489E11   -3.123792626755135E1   6.126928864998993E1  -6.639374909355910   4.875077115471280E1  -6.688921605514390   1.533648837189777E1  -2.532377944998998E1  -1.566328643980822E2  
 1.369682151589242E11   -3.538145266516460E1  -1.843649309369182E1  -6.656184789026368   2.452445764152748E1  -6.724987457308035  -9.284877558709177  -2.409623929559418E1  -1.541993288862127E2  
 1.369804400977995E11   -3.062407739978372E1  -8.962889526938497E1  -6.644400673125619  -1.774075740923933E-1  -6.697677071014319  -3.364923284054095E1  -2.281601476091046E1  -1.635225045741840E2  
 1.369926650366748E11   -2.735260248310959E1  -1.291270603269750E2  -6.639097839149838  -2.480708733256429E1  -6.692833918178357  -5.843602606847374E1  -2.215195318922828E1  -1.792570872493303E2  
 1.370048899755501E11   -2.622916000830727E1  -1.588443714336312E2  -6.629945518289436  -4.940943468424981E1  -6.684493327185674  -8.322836053072929E1  -2.228344220191824E1   1.607025769309566E2  
 1.370171149144254E11   -2.674403141928223E1   1.776783960943209E2  -6.636198420433852  -7.368600190679501E1  -6.686614776540332  -1.079369989348972E2  -2.332537007098880E1   1.372475729732321E2  
 1.370293398533007E11   -2.816317278279455E1   1.621335491121087E2  -6.647893211829984  -9.833962931082397E1  -6.684935773605837  -1.327678406404926E2  -2.558355734683864E1   1.109596615433139E2  
 1.370415647921760E11   -3.001767858747677E1   1.612780269286986E2  -6.679409657483683  -1.228442686626272E2  -6.715000902641751  -1.576089274013955E2  -2.918088345971582E1   8.348876494157187E1  
 1.370537897310514E11   -2.972362607717935E1   1.649498524830468E2  -6.700662233068404  -1.471190946455535E2  -6.727725412974726   1.781113128685757E2  -3.482481685310367E1   5.137163960280729E1  
 1.370660146699267E11   -2.881710696598886E1   1.628323236279211E2  -6.651103513454054  -1.716102820399517E2  -6.687122625856588   1.538636811109994E2  -4.050400753300031E1  -3.157501947239003  
 1.370782396088020E11   -2.702427055225845E1   1.555701732241391E2  -6.596977486257798   1.639454356976082E2  -6.637560937053297   1.290240066419159E2  -3.962270951203442E1  -9.056963705758446E1  
 1.370904645476773E11   -2.568943737443846E1   1.383267499254076E2  -6.577605245243133   1.389703758979279E2  -6.604977865174802   1.044026762452646E2  -3.668947557319586E1  -1.420176072358455E2  
 1.371026894865526E11   -2.529323491097986E1   1.158194036790507E2  -6.576293218554704   1.143298431068200E2  -6.610207216433842   7.975896227381529E1  -3.732385089459006E1  -1.746537203540244E2  
 1.371149144254279E11   -2.610562718231122E1   8.942971326047704E1  -6.577474640129140   8.942876950261793E1  -6.611587084107385   5.499305342375255E1  -4.120627093953755E1   1.571275303563899E2  
 1.371271393643032E11   -2.800385766293453E1   6.178463983917192E1  -6.607393196762996   6.448717966588892E1  -6.633223221093690   3.014572152389280E1  -5.281255019780733E1  -1.352698506681574E2  
 1.371393643031785E11   -3.126427347393430E1   3.168251787265904E1  -6.636023253820720   4.014897846967496E1  -6.669795757696474   5.419956949888115  -4.009059366524525E1  -1.161442381478864E2  
 1.371515892420538E11   -3.610530822184261E1  -3.995065944650647  -6.619118033673341   1.585406529828715E1  -6.648681395742485  -1.865781583736288E1  -3.592045592263336E1  -1.434878914120127E2  
 1.371638141809291E11   -4.159615269594976E1  -7.956240910001210E1  -6.577853108233770  -8.939666864928146  -6.602415414821858  -4.304275803983168E1  -3.401509184782736E1  -1.674819916053468E2  
 1.371760391198044E11   -3.892611885473060E1  -1.739027075831577E2  -6.549603007530440  -3.376789013500359E1  -6.587448528759694  -6.813402015869197E1  -3.227713757936152E1   1.594773970686717E2  
 1.371882640586797E11   -3.605628561423065E1   1.344474793324781E2  -6.542746177881618  -5.856226674128521E1  -6.589976945672273  -9.281060571885901E1  -3.126795823169116E1   1.193536450222734E2  
 1.372004889975550E11   -3.533492584364350E1   8.525335745771425E1  -6.552220532207277  -8.368540035576747E1  -6.590793811247207  -1.176620471036063E2  -3.029626609294390E1   7.404029242081019E1  
 1.372127139364303E11   -3.529894646959130E1   2.338230664456275E1  -6.582224081728552  -1.081246462966833E2  -6.616983814151956  -1.427684611318214E2  -2.886724091307221E1   2.731340337147635E1  
 1.372249388753056E11   -3.351704349825091E1  -3.517644315309605E1  -6.627710702002728  -1.331669308981004E2  -6.678749731555084  -1.672320451058079E2  -2.741409971103646E1  -1.678606995503253E1  
 1.372371638141809E11   -3.025171342599965E1  -8.260908444592286E1  -6.677186484882586  -1.572536771077789E2  -6.731244298491486   1.684832244394584E2  -2.625753073219016E1  -5.717167837645916E1  
 1.372493887530562E11   -2.718156508730189E1  -1.176173178724870E2  -6.682996041714777   1.778576982561001E2  -6.726039309744546   1.448098658148989E2  -2.560081043659631E1  -9.249995234611400E1  
 1.372616136919315E11   -2.507903485508608E1  -1.510939862677932E2  -6.664312513470827   1.534898395115464E2  -6.718858257523060   1.199490150479556E2  -2.511739844562192E1  -1.269080417926903E2  
 1.372738386308069E11   -2.409674245840065E1   1.789078141284944E2  -6.669291220879877   1.286812189089814E2  -6.709096566033163   9.599469602213823E1  -2.494447233300000E1  -1.606638453592516E2  
 1.372860635696822E11   -2.404792070417819E1   1.503076461497248E2  -6.641485365744833   1.040592019543439E2  -6.682000736517043   7.104439433626996E1  -2.532628327241857E1   1.644376022180742E2  
 1.372982885085575E11   -2.501246732178277E1   1.238464339426361E2  -6.637562017819710   7.946528539538112E1  -6.661214758076497   4.684239535390088E1  -2.617118849759406E1   1.286240856176404E2  
 1.373105134474328E11   -2.705620941182497E1   1.017677164771222E2  -6.620082768471647   5.448003267555880E1  -6.675684243288507   2.191025004979572E1  -2.781272427535416E1   9.377434207723736E1  
 1.373227383863081E11   -3.050588713216679E1   8.361032914423628E1  -6.651739320330948   2.992778355235721E1  -6.675562665517270  -2.545441903847627  -3.020117198564827E1   6.110975440033482E1  
 1.373349633251834E11   -3.697189155924340E1   8.537967817472374E1  -6.626196189773117   5.512595529184980  -6.662363343529918  -2.697517478599406E1  -3.298768609982393E1   3.026917951429576E1  
 1.373471882640587E11   -3.670189885664872E1   1.478642532013051E2  -6.608218736512193  -1.934027887480268E1  -6.645456825393131  -5.166745801874402E1  -3.842067020669391E1  -8.641127596909829  
 1.373594132029340E11   -3.045393194109188E1   1.460462948343631E2  -6.617830025361047  -4.403208650790115E1  -6.641644886678559  -7.631843325930390E1  -5.057721446234724E1  -1.478493770800544E2  
 1.373716381418093E11   -2.777958059599892E1   1.263286765390465E2  -6.628129508172039  -6.907076945825652E1  -6.660600296811771  -1.009011103219312E2  -3.666163436349427E1   1.251706939927132E2  
 1.373838630806846E11   -2.704270435265755E1   1.057251415412787E2  -6.641447561830029  -9.395916030979585E1  -6.681430038069169  -1.253240917083331E2  -3.139162824200223E1   9.101323480184982E1  
 1.373960880195599E11   -2.760060438422034E1   8.731701381243708E1  -6.693296045488025  -1.180986927973638E2  -6.706816882808343  -1.503125370013264E2  -2.922912663699253E1   6.039622351380588E1  
 1.374083129584352E11   -2.933116395566043E1   7.317456621874267E1  -6.724695388881580  -1.427063457794244E2  -6.761163757958231  -1.744322116135658E2  -2.873215998636598E1   3.825008820427146E1  
 1.374205378973105E11   -3.184956962080427E1   6.801006166039292E1  -6.717939237963615  -1.670556073187083E2  -6.739273845275305   1.613036563539647E2  -2.817813419919701E1   2.171663508856260E1  
 1.374327628361858E11   -3.453860127646105E1   8.526086999706617E1  -6.656609589361416   1.684285098031099E2  -6.696436731828813   1.368371631410181E2  -2.789862635026135E1   3.840098300521642E-1  
 1.374449877750611E11   -3.166011546352512E1   1.056441678169071E2  -6.623214122892664   1.435538367055997E2  -6.666515147999270   1.122108549120087E2  -2.921977311071043E1  -2.004835501247973E1  
 1.374572127139364E11   -2.809353717223592E1   9.825663587588250E1  -6.626290483136562   1.191622352427662E2  -6.634978553366330   8.746160766979821E1  -3.238313654440853E1  -3.269286853852815E1  
 1.374694376528117E11   -2.615125887687308E1   7.938704680205569E1  -6.615961656360953   9.407563722964974E1  -6.632818064755488   6.302346464224301E1  -3.592181781404835E1  -1.477860601201014E1  
 1.374816625916870E11   -2.558310028279058E1   5.932039096251863E1  -6.619416118071317   6.939983758249049E1  -6.658414207366382   3.850410567017355E1  -3.303825897951847E1   9.151150297590638  
 1.374938875305624E11   -2.624889061948849E1   3.694572724835766E1  -6.641436877539322   4.479734401519344E1  -6.668521030068383   1.346431194801387E1  -3.023708433062697E1   2.503575129151147  
 1.375061124694377E11   -2.802479612083943E1   1.756721263741834E1  -6.630319958205844   2.020728092003547E1  -6.675288043909561  -1.068377532172754E1  -2.883221928346236E1  -6.328922012606546  
 1.375183374083130E11   -3.179596345204144E1   2.083120811044331  -6.613537746270120  -4.168885886366335  -6.637510205447291  -3.529357825552099E1  -2.744634071995565E1  -1.632090456514547E1  
 1.375305623471883E11   -3.997849506157396E1   2.287925764843700E1  -6.590126882350964  -2.884314136638853E1  -6.622004079479782  -6.023536605522298E1  -2.701373908640445E1  -3.055862972411472E1  
 1.375427872860636E11   -3.404683553646921E1   7.710635737041380E1  -6.590474904939184  -5.356190282330091E1  -6.620857797495785  -8.500328759651671E1  -2.768519498153919E1  -4.240304615340563E1  
 1.375550122249389E11   -2.852325576267406E1   6.388117093203047E1  -6.604175311131947  -7.872280636845738E1  -6.636694236713367  -1.095158937644760E2  -2.870821567467659E1  -4.622722434203433E1  
 1.375672371638142E11   -2.596677153457673E1   4.045325952442468E1  -6.631099371314102  -1.036365534283981E2  -6.648476692784297  -1.341535027823389E2  -2.841601397014150E1  -4.424819578086696E1  
 1.375794621026895E11   -2.493844204449392E1   1.406899741090102E1  -6.666957128508322  -1.280459116279756E2  -6.687624969663594  -1.591764089058058E2  -2.704705283790035E1  -4.974012783896094E1  
 1.375916870415648E11   -2.473847305133174E1  -1.413782957080274E1  -6.720007623454954  -1.522410568584747E2  -6.731671319574081   1.762470673017353E2  -2.627353908393013E1  -6.341506967964518E1  
 1.376039119804401E11   -2.530751144348832E1  -4.568607030828677E1  -6.706496058720629  -1.765204224346710E2  -6.732553549938671   1.519558799799817E2  -2.622641013563734E1  -7.718044996910636E1  
 1.376161369193154E11   -2.655574518115158E1  -8.379526862741408E1  -6.696648681179535   1.586091301948047E2  -6.719286369152073   1.273912255883391E2  -2.623468874019799E1  -9.364667544521029E1  
 1.376283618581907E11   -2.776968921442410E1  -1.303400867980000E2  -6.712407875232098   1.342825165887213E2  -6.718123890306581   1.028971291931596E2  -2.692724928463874E1  -1.171860908400766E2  
 1.376405867970660E11   -2.809222749743318E1   1.795035037237439E2  -6.724782103210822   1.096923511000386E2  -6.737881989976791   7.821333834660624E1  -2.869119420118962E1  -1.475554371946314E2  
 1.376528117359413E11   -2.734645990583149E1   1.348101806348382E2  -6.725185186127113   8.531590651655945E1  -6.742845465838526   5.328282680984405E1  -3.177824189124028E1   1.722172765804673E2  
 1.376650366748166E11   -2.681838047223677E1   9.905000874009292E1  -6.740590788713538   6.065533993732451E1  -6.754645049324513   2.886182713826248E1  -3.417555531881918E1   1.112134646443024E2  
 1.376772616136919E11   -2.673459577402607E1   7.012207935178580E1  -6.769361647275149   3.649975870523218E1  -6.777943626566035   4.452474592574740  -3.318413252865931E1   5.967625883810010E1  
 1.376894865525672E11   -2.762058459499164E1   4.394289863117515E1  -6.723785736014237   1.242113774849883E1  -6.754998532080763  -1.977643009655373E1  -3.001293095831015E1   2.840224842989747E1  
 1.377017114914425E11   -2.995405360776903E1   2.397443849614090E1  -6.654554724946469  -1.211105160298117E1  -6.685127829449781  -4.442292482131301E1  -2.761077256721518E1  -8.105440509007869E-1  
 1.377139364303178E11   -3.457347794167220E1   2.122556767991928E1  -6.628145207084969  -3.689188448625700E1  -6.642434287457149  -6.927362679402270E1  -2.681216294372026E1  -2.729980263203118E1  
 1.377261613691932E11   -3.540697689018287E1   6.005086135455430E1  -6.642875247893826  -6.170524286997371E1  -6.659783655531659  -9.395082024189061E1  -2.759171879901457E1  -4.951026269324547E1  
 1.377383863080685E11   -3.045854025534117E1   6.825089827837965E1  -6.661347845207520  -8.639607779415971E1  -6.655975797856627  -1.189757449564782E2  -2.958942586473268E1  -6.328831482764373E1  
 1.377506112469438E11   -2.724873601224901E1   5.482382057074377E1  -6.698684429354606  -1.109668531696685E2  -6.708040795412856  -1.438811644921794E2  -3.182478014571084E1  -6.438341257849716E1  
 1.377628361858191E11   -2.575122740335867E1   3.749921477972940E1  -6.758743115276264  -1.352109272409689E2  -6.770399473057051  -1.683690458148487E2  -3.274843386836859E1  -6.071386164244917E1  
 1.377750611246944E11   -2.503837272685759E1   1.830574209754993E1  -6.758057712882871  -1.589736744939591E2  -6.779597495681993   1.671782136459752E2  -3.425370119194494E1  -4.590856449215699E1  
 1.377872860635697E11   -2.572066019823097E1  -2.385848231150496  -6.683470662277796   1.765775902525664E2  -6.705597969025266   1.432485701234328E2  -3.110838805187323E1  -2.916545053615537E1  
 1.377995110024450E11   -2.812467967406590E1  -2.034146073036947E1  -6.632693998672999   1.516454551335868E2  -6.651270422880125   1.181363072488813E2  -2.793487934118248E1  -3.932872492131212E1  
 1.378117359413203E11   -3.250923826519157E1  -2.092415098773439E1  -6.614419498251341   1.268816167563829E2  -6.627380281808141   9.335925151421290E1  -2.684363374696288E1  -5.648288239166086E1  
 1.378239608801956E11   -3.485545288181096E1   2.211983869407418E1  -6.631578581249921   1.018939304280439E2  -6.653303018476873   6.841897530776146E1  -2.703916390869367E1  -7.243241250202060E1  
 1.378361858190709E11   -2.915689583715230E1   3.396882666277740E1  -6.644822004179540   7.718789337551137E1  -6.668134693337089   4.379801301170003E1  -2.802900605453488E1  -8.251978549077731E1  
 1.378484107579462E11   -2.566012125946183E1   2.118621971707332E1  -6.693259740339776   5.280378685613086E1  -6.720057129818582   1.932465683038006E1  -2.897222842761007E1  -8.827584903621111E1  
 1.378606356968215E11   -2.364659389846952E1   3.468374462322548  -6.730007358299037   2.875215833115813E1  -6.753937935766897  -5.285720321969745  -2.956952224595726E1  -9.901427482300387E1  
 1.378728606356968E11   -2.275389114730637E1  -1.806471329402419E1  -6.683519383141361   4.468855358792474  -6.732157635397830  -2.954775220943046E1  -3.212107597856583E1  -1.072096539051193E2  
 1.378850855745721E11   -2.295584451049047E1  -4.122182489529411E1  -6.637620882088232  -1.996192851057736E1  -6.678644841461554  -5.423780598550106E1  -3.433819272699279E1  -1.011578168692330E2  
 1.378973105134475E11   -2.434252495551771E1  -6.433256059686617E1  -6.595327372616284  -4.471579863156449E1  -6.650202334295688  -7.895502700233919E1  -3.492644950318653E1  -9.547818578360918E1  
 1.379095354523228E11   -2.741472198838065E1  -8.567503730880171E1  -6.594644902368687  -6.950774876193110E1  -6.633704084736087  -1.037279550248042E2  -3.678876307505178E1  -9.841950899908352E1  
 1.379217603911981E11   -3.363137788466900E1  -1.004565028206115E2  -6.590428356779895  -9.418957780150689E1  -6.648429138221994  -1.285944914069947E2  -4.102002245980432E1  -8.075882119354856E1  
 1.379339853300734E11   -4.233125115223076E1  -3.193334100930071E1  -6.599084760509629  -1.192451545960437E2  -6.649731407647382  -1.532579552482076E2  -3.760366925107051E1  -3.622431281723583E1  
 1.379462102689487E11   -3.258885472933847E1  -3.717879022022541  -6.627913082028548  -1.437151734637245E2  -6.685123143087575  -1.780696416608996E2  -3.249659122671808E1  -4.220211034938026E1  
 1.379584352078240E11   -2.833037496641554E1  -2.280868679539810E1  -6.644369352782193  -1.677932140066348E2  -6.674901088236153   1.574685932841331E2  -3.037747013761489E1  -5.356515027029197E1  
 1.379706601466993E11   -2.655821741615560E1  -4.720737203363510E1  -6.596513883795510   1.674121484085489E2  -6.658663693147730   1.330910112939119E2  -2.893744090911408E1  -6.547123187756145E1  
 1.379828850855746E11   -2.661954954186626E1  -7.494512697231787E1  -6.599922212970803   1.427261076478020E2  -6.654220760070150   1.081662895383928E2  -2.790470053888501E1  -8.372612354644748E1  
 1.379951100244499E11   -2.823617417190423E1  -1.056249466866998E2  -6.593590593285303   1.176920490156107E2  -6.641807474221705   8.354272957522515E1  -2.791791825872680E1  -1.059294324143511E2  
 1.380073349633252E11   -3.174496162316106E1  -1.457397244556998E2  -6.619870164208244   9.294451866356137E1  -6.678291899421108   5.873995308001112E1  -2.945557689434025E1  -1.332415518457952E2  
 1.380195599022005E11   -3.510949802356244E1   1.378880082849488E2  -6.651701121791239   6.844272741818503E1  -6.713397907410259   3.406962557714923E1  -3.259478874509090E1  -1.621568810775049E2  
 1.380317848410758E11   -3.100747199369575E1   6.691134022760208E1  -6.698055794275160   4.412625166062510E1  -6.762839623167801   9.673366516350617  -3.747029545441563E1   1.665820871818031E2  
 1.380440097799511E11   -2.715328095545358E1   2.633346824309905E1  -6.696536789668660   1.965509791543660E1  -6.776215736062894  -1.447202950638110E1  -4.000909138119308E1   1.086973021992684E2  
 1.380562347188264E11   -2.491772879858080E1  -5.768077019694013  -6.654582276299244  -4.444078061187071  -6.731999077783431  -3.888083859371717E1  -3.667739106727515E1   4.389110555878867E1  
 1.380684596577017E11   -2.405345959902016E1  -3.426933282773309E1  -6.617977027003418  -2.938842303389668E1  -6.692042712651400  -6.337312906681745E1  -3.348069054078029E1   4.406932032312891  
 1.380806845965770E11   -2.424833127936394E1  -6.001894000561774E1  -6.557578385095996  -5.412924652384157E1  -6.638301384027654  -8.787729285835252E1  -3.265606450590762E1  -2.331123611151133E1  
 1.380929095354523E11   -2.565121973173976E1  -8.516668095915838E1  -6.559143914559334  -7.898510522810371E1  -6.636184958305750  -1.130890473764677E2  -3.361191984970614E1  -3.683055789580587E1  
 1.381051344743276E11   -2.879168847644157E1  -1.082034353230046E2  -6.567779814429128  -1.041414069057401E2  -6.652306088911869  -1.380289619641127E2  -3.521815198111428E1  -3.213845444774177E1  
 1.381173594132029E11   -3.509980671925292E1  -1.244104796207900E2  -6.607090678496866  -1.285844730053425E2  -6.699389862253619  -1.625136901966781E2  -3.344791293532320E1  -2.543297100340577E1  
 1.381295843520783E11   -4.259566040327837E1  -3.690016095201676E1  -6.631075675490848  -1.529835654597651E2  -6.724440128665688   1.729092580667016E2  -3.181077676113733E1  -2.909431368871202E1  
 1.381418092909536E11   -3.200091109167541E1  -2.850842379827444E1  -6.615158176207453  -1.775150734442360E2  -6.697184634823990   1.487273495100826E2  -3.073778706185855E1  -3.386735801248751E1  
 1.381540342298289E11   -2.803490986361262E1  -5.040207293661999E1  -6.583306333445472   1.577304767169188E2  -6.663670275449216   1.243948473540544E2  -2.942143305089149E1  -4.479300922446108E1  
 1.381662591687042E11   -2.628482373837356E1  -7.673631261892066E1  -6.568214246218024   1.330926544975210E2  -6.642679277313569   9.899977496862140E1  -2.908769882654349E1  -6.277511206795983E1  
 1.381784841075795E11   -2.599903437274329E1  -1.035890666843936E2  -6.553643838352648   1.081242377244038E2  -6.633320906306789   7.474356188542281E1  -3.064185642179828E1  -8.370290495107854E1  
 1.381907090464548E11   -2.684845487540807E1  -1.318903809850181E2  -6.565847794574934   8.329342073646288E1  -6.665912125013356   4.996575711239907E1  -3.601577190798808E1  -1.032967812708226E2  
 1.382029339853301E11   -2.876361932227543E1  -1.645134400487483E2  -6.613064173995112   5.847583792212737E1  -6.702102363323806   2.524989165639457E1  -4.802506710785685E1  -3.930158724683257  
 1.382151589242054E11   -3.221649336336629E1   1.572430425004081E2  -6.655155327439256   3.387615818745648E1  -6.725753652374039   1.051702000940644  -3.344309412266934E1   1.183817269859735E1  
 1.382273838630807E11   -3.622299991053106E1   1.018652888895464E2  -6.647869523627469   9.259932753903497  -6.710446680901941  -2.307348378329395E1  -2.873144267819422E1  -3.027512934959814  
 1.382396088019560E11   -3.773989830614747E1   2.506300497845896E1  -6.623013704914388  -1.539282659820506E1  -6.687060897837895  -4.772066698873096E1  -2.572950628454900E1  -2.216787689124088E1  
 1.382518337408313E11   -3.563797997424172E1  -3.615578854786828E1  -6.589074518126611  -4.011739466822885E1  -6.654220879525081  -7.233064298945162E1  -2.419038098924516E1  -4.421486179083277E1  
 1.382640586797066E11   -3.446145163128853E1  -8.563341068915487E1  -6.578682097284957  -6.506865618357713E1  -6.631692335065697  -9.710241579153279E1  -2.407224943945182E1  -6.885186248207177E1  
 1.382762836185819E11   -3.432190154009903E1  -1.376444986189834E2  -6.615603595549811  -9.002117248651139E1  -6.664675566664555  -1.219241596076841E2  -2.559793332341630E1  -9.365640764816385E1  
 1.382885085574572E11   -3.316914856147356E1   1.663144956188069E2  -6.678842999994556  -1.148418264169661E2  -6.719247637236879  -1.465969173008695E2  -2.912879582642281E1  -1.166164932546282E2  
 1.383007334963325E11   -3.104263494168360E1   1.150895227837138E2  -6.735063561425314  -1.394121899237150E2  -6.797958166008558  -1.706040311611384E2  -3.648792893629145E1  -1.369391444541473E2  
 1.383129584352078E11   -2.886393841166924E1   7.472738701159651E1  -6.756412366789919  -1.635762341311823E2  -6.812392908922698   1.651814737931096E2  -4.272679508397599E1   4.157566528794918E1  
 1.383251833740831E11   -2.731257082365567E1   4.286603073367615E1  -6.719400456244728   1.722480277082695E2  -6.798942498620066   1.408267852858085E2  -2.963224813375481E1   1.035282342752734E1  
 1.383374083129584E11   -2.667070974071391E1   1.667309142074123E1  -6.683722672589070   1.473869464587524E2  -6.750285578271069   1.164754268635440E2  -2.482524764565159E1  -1.636792208288908E1  
 1.383496332518337E11   -2.693043151200831E1  -5.193858869169096  -6.646352345239470   1.229292022186416E2  -6.695598266389584   9.199002716965717E1  -2.238083923844955E1  -4.217853812766296E1  
 1.383618581907091E11   -2.830474623562215E1  -2.066835438966556E1  -6.617506206328814   9.797060453741031E1  -6.668437199763408   6.723181933874888E1  -2.147820919602312E1  -6.814889610827402E1  
 1.383740831295844E11   -3.034118085777965E1  -2.144273657498374E1  -6.634729152730801   7.286284103597768E1  -6.687240058171627   4.225400254576468E1  -2.155677200085816E1  -9.276572817028500E1  
 1.383863080684597E11   -2.998179607222730E1  -4.678554052768851  -6.690019958007266   4.821723758448614E1  -6.754236983588204   1.754577194137172E1  -2.245563632520121E1  -1.187807635590446E2  
 1.383985330073350E11   -2.660380717572464E1  -1.925516023166009  -6.739107384555773   2.396867344008697E1  -6.765450345176517  -6.854078006664210  -2.403950853434800E1  -1.471254517744383E2  
 1.384107579462103E11   -2.372705889380982E1  -1.362232401026300E1  -6.733416556082484  -4.390697602529453E-1  -6.771300839907048  -3.102502302453769E1  -2.684526241936270E1   1.765742548173751E2  
 1.384229828850856E11   -2.191731723055535E1  -3.110088931972412E1  -6.709821568332519  -2.483298623773007E1  -6.749870410574696  -5.577779465607891E1  -3.041004262098231E1   1.251685880545464E2  
 1.384352078239609E11   -2.087875019204792E1  -5.058944157426797E1  -6.692773995123012  -4.918704737210525E1  -6.718490864512707  -8.018779143561639E1  -3.138481481284518E1   5.923191819960060E1  
 1.384474327628362E11   -2.066874365794194E1  -7.161594214867179E1  -6.657578918558875  -7.368127284477149E1  -6.697189548818971  -1.045048399444853E2  -2.960071301075128E1   1.083005226935894E1  
 1.384596577017115E11   -2.129846403616533E1  -9.281693855380763E1  -6.633861785920855  -9.852565667864035E1  -6.651607409598070  -1.294647722162835E2  -2.858133923784626E1  -2.027640140585313E1  
 1.384718826405868E11   -2.308629701045166E1  -1.139910836653286E2  -6.630492724634449  -1.232347382563855E2  -6.656909125328948  -1.543386726072403E2  -2.852962701954271E1  -4.302943107417284E1  
 1.384841075794621E11   -2.655283152225313E1  -1.320009137653879E2  -6.632008262174038  -1.477534167785130E2  -6.659676369193117  -1.786494609340730E2  -3.007602792893846E1  -5.782213683361833E1  
 1.384963325183374E11   -3.257041326968586E1  -1.359476619213304E2  -6.633313181055748  -1.723174082894890E2  -6.651465486101020   1.565668525793554E2  -3.290439561531252E1  -5.645447944555222E1  
 1.385085574572127E11   -3.644676479008404E1  -7.594551241464829E1  -6.622177215234407   1.632002631488585E2  -6.637091180256051   1.319572420053817E2  -3.251975619115837E1  -3.090388470522487E1  
 1.385207823960880E11   -2.953990331671356E1  -5.954850668190012E1  -6.607131136145318   1.386893666935171E2  -6.637189009906826   1.070279005284849E2  -2.889941770056012E1  -2.740686678931125E1  
 1.385330073349633E11   -2.598696837749185E1  -7.382625708806965E1  -6.595488585479689   1.140223325128730E2  -6.614951001884217   8.232543579302985E1  -2.642424762354240E1  -3.986092279543390E1  
 1.385452322738386E11   -2.442906715582075E1  -9.452441339100389E1  -6.588089296077213   8.932851829504834E1  -6.595521847643876   5.755998265345413E1  -2.540798412553142E1  -5.669416163508952E1  
 1.385574572127139E11   -2.452690525245536E1  -1.171698169245449E2  -6.600323571898343   6.472523292233356E1  -6.623576197532335   3.276063087816647E1  -2.565635298151343E1  -7.412227253047682E1  
 1.385696821515892E11   -2.642002484517641E1  -1.394638468244394E2  -6.623962278247101   4.047790586789926E1  -6.645268039465558   7.662807542267030  -2.720691431389941E1  -9.367947408673135E1  
 1.385819070904645E11   -3.058336436758108E1  -1.599140081712485E2  -6.629708476793849   1.590967993733846E1  -6.632238724551143  -1.687095572598470E1  -3.193390722614789E1  -1.120603832117996E2  
 1.385941320293398E11   -4.321064640916789E1  -1.654282125401780E2  -6.629375344766038  -8.608740388979385  -6.642430114276558  -4.139896669083278E1  -4.692755777798774E1  -6.185159341763234E1  
 1.386063569682152E11   -3.459192098573454E1  -4.027102889283665E1  -6.645728269112199  -3.337056105297646E1  -6.649516111711826  -6.614583564258430E1  -3.218352695428857E1   3.900737317114075  
 1.386185819070905E11   -2.746815528903381E1  -5.857259000703867E1  -6.650921952102935  -5.768890759920561E1  -6.655593945422563  -9.088106299451727E1  -2.667415987603389E1  -1.210195708127188E1  
 1.386308068459658E11   -2.422672836810826E1  -8.166974136221582E1  -6.647480211164875  -8.227665891597728E1  -6.648517654606806  -1.151634578303778E2  -2.422001172799224E1  -2.906540850024722E1  
 1.386430317848411E11   -2.269315993208284E1  -1.060860483276097E2  -6.654601748869319  -1.068983275995896E2  -6.667216962046316  -1.401815136092621E2  -2.310384411931520E1  -4.440651334815535E1  
 1.386552567237164E11   -2.242781991864681E1  -1.304033934769870E2  -6.663614124705267  -1.311207137888884E2  -6.681068777682163  -1.647471917641060E2  -2.273251752696077E1  -5.804779404637723E1  
 1.386674816625917E11   -2.309177816172670E1  -1.536268058842306E2  -6.656457180867720  -1.557175276619148E2  -6.656011573442462   1.709772319387501E2  -2.330122430144341E1  -6.933307850122171E1  
 1.386797066014670E11   -2.476157201784729E1  -1.782295846871123E2  -6.627540997774098  -1.796697997006983E2  -6.630327613386119   1.459769072212060E2  -2.441921816207904E1  -7.166437695986458E1  
 1.386919315403423E11   -2.784000186411987E1   1.544231473986095E2  -6.602095724813055   1.555120581240273E2  -6.624884362101795   1.213194855562208E2  -2.444637381861844E1  -6.578879700648864E1  
 1.387041564792176E11   -3.388077248930610E1   1.173617158370640E2  -6.620885342282343   1.307275872857629E2  -6.631277898468301   9.631486644445542E1  -2.290181775908074E1  -6.377295445826652E1  
 1.387163814180929E11   -4.116627363677305E1   6.245657136208286  -6.608477325864129   1.063212971165080E2  -6.634212766902692   7.162229882511484E1  -2.116408191309924E1  -7.129743767002408E1  
 1.387286063569682E11   -3.310909319038837E1  -6.450225950602849E1  -6.624649727901175   8.161672709965033E1  -6.639090746433883   4.674054431438201E1  -2.008810855358912E1  -8.369443658452136E1  
 1.387408312958435E11   -2.965663219567181E1  -9.342562533085417E1  -6.646665623758909   5.719787374858811E1  -6.657986099123948   2.218267073231108E1  -1.968793661545915E1  -9.805847541459157E1  
 1.387530562347188E11   -2.820104213871397E1  -1.142595203928692E2  -6.652645917412874   3.308233616245229E1  -6.640270813344133  -2.070974969241143  -1.990362513543093E1  -1.133663765236106E2  
 1.387652811735941E11   -2.794018733657645E1  -1.328927339506039E2  -6.613614451624098   8.234911298760592  -6.621918163518261  -2.629820351581468E1  -2.101718798667942E1  -1.284648774382796E2  
 1.387775061124694E11   -2.895854394313200E1  -1.478530642681047E2  -6.577081771129881  -1.660273474216442E1  -6.601380292211802  -5.129245781290614E1  -2.314948497117169E1  -1.395337723916881E2  
 1.387897310513447E11   -3.049473472231403E1  -1.549871455868638E2  -6.578040118842462  -4.133552329810367E1  -6.598508710432048  -7.596095378036267E1  -2.588206737719970E1  -1.406219573983273E2  
 1.388019559902200E11   -3.158601238051260E1  -1.512948728626622E2  -6.581943960935703  -6.614031399703264E1  -6.600516870675917  -1.006407355277036E2  -2.720805046071057E1  -1.278870720668295E2  
 1.388141809290953E11   -3.049605790608141E1  -1.502541454375981E2  -6.595997418951042  -9.086707210910245E1  -6.602667352844772  -1.257372006606771E2  -2.597838275389795E1  -1.211726217352630E2  
 1.388264058679706E11   -2.955938329172548E1  -1.629361253326216E2  -6.631993020273734  -1.155775392650616E2  -6.628470619587496  -1.503601532974138E2  -2.450486984856860E1  -1.277119528832581E2  
 1.388386308068460E11   -3.004743729321518E1   1.787874151786636E2  -6.657497960260637  -1.399745995498390E2  -6.648011911958133  -1.745972265300854E2  -2.372294338475394E1  -1.422641690148851E2  
 1.388508557457213E11   -3.177082223383509E1   1.571586189498667E2  -6.645343264402527  -1.645109556818867E2  -6.656364989812978   1.609571385826648E2  -2.421938693867746E1  -1.636235630101749E2  
 1.388630806845966E11   -3.513911754041134E1   1.245242005213156E2  -6.648453817359548   1.708007729487239E2  -6.650365305942046   1.364001999633027E2  -2.614392054352254E1   1.708761355538678E2  
 1.388753056234719E11   -3.966764577151986E1   4.541841992866439E1  -6.660728398186572   1.459824253174119E2  -6.672468857144167   1.115568125698478E2  -3.034812000963391E1   1.366483291607624E2  
 1.388875305623472E11   -3.363063542492683E1  -3.362599432646355E1  -6.683065229867908   1.212647654070911E2  -6.682205501724640   8.714920628037011E1  -3.588263990416393E1   6.330345758221773E1  
 1.388997555012225E11   -2.867913577223909E1  -7.172169389800814E1  -6.694668370818004   9.684548987896523E1  -6.711988006574068   6.256543501657539E1  -3.159135799073550E1  -2.172121647332871E1  
 1.389119804400978E11   -2.595298378490251E1  -1.029343488587794E2  -6.712936988548663   7.202214624327939E1  -6.720953884412264   3.844241431913346E1  -2.720194154774011E1  -5.915647299016830E1  
 1.389242053789731E11   -2.497179067046280E1  -1.295412238391342E2  -6.711006273350720   4.791438947125693E1  -6.720429023437532   1.411869377899709E1  -2.512184299342302E1  -8.798150768475929E1  
 1.389364303178484E11   -2.497741372548863E1  -1.521240927646946E2  -6.670989022436574   2.366539382163267E1  -6.683318422089180  -1.053008918096714E1  -2.470576860445137E1  -1.143341997014236E2  
 1.389486552567237E11   -2.579596665050011E1  -1.742185893457227E2  -6.620767436247201  -1.266008328602645  -6.646335230503038  -3.481626254079071E1  -2.579060071256984E1  -1.374956677825460E2  
 1.389608801955990E11   -2.783065695369179E1   1.651088756023291E2  -6.600569220175889  -2.595408089120004E1  -6.621501272818001  -5.951179703381521E1  -2.859690176251907E1  -1.582682739696029E2  
 1.389731051344743E11   -3.225981060498160E1   1.513631536867692E2  -6.610383989326609  -5.066905233674374E1  -6.622818029998053  -8.440012777759532E1  -3.443098489414994E1  -1.671802461588500E2  
 1.389853300733496E11   -3.935743548246128E1  -1.777290698960936E2  -6.616757680985664  -7.558082321399169E1  -6.622800047912092  -1.090284412306864E2  -4.012716476431478E1  -1.033123127558914E2  
 1.389975550122250E11   -3.320281003527256E1  -1.355368561391881E2  -6.636607909498061  -1.004406314289489E2  -6.639134442376444  -1.333358414147559E2  -3.216231432259273E1  -8.262002773230610E1  
 1.390097799511003E11   -2.885295431649117E1  -1.498434729859110E2  -6.645216625703392  -1.248040206822090E2  -6.663209461998360  -1.575671572955220E2  -2.830207775872486E1  -1.001561547730570E2  
 1.390220048899756E11   -2.705299296833756E1  -1.703884773246986E2  -6.637519180659407  -1.496664492209406E2  -6.634693127682366   1.779484476048012E2  -2.710802439987506E1  -1.230294092215578E2  
 1.390342298288509E11   -2.635813847134302E1   1.670504844149552E2  -6.605308604961419  -1.742723574067851E2  -6.610429962780586   1.534839702280506E2  -2.771674255523921E1  -1.501870071469628E2  
 1.390464547677262E11   -2.691055729267919E1   1.390597869319178E2  -6.594923038308760   1.607713867032341E2  -6.590706174727506   1.288707851887909E2  -3.070482556174424E1   1.765707610723106E2  
 1.390586797066015E11   -2.924483925138126E1   1.052135121681766E2  -6.608117758910842   1.356281799736352E2  -6.614543557012105   1.039901680358604E2  -3.665728261679619E1   1.148871385749723E2  
 1.390709046454768E11   -3.330905952951462E1   5.375583699090763E1  -6.638874430057105   1.111518782819541E2  -6.660908994440065   7.952416944634101E1  -3.308916577051500E1   1.373055614181557E1  
 1.390831295843521E11   -3.411537345191827E1  -3.223152537087528E1  -6.683267916245657   8.633747644636907E1  -6.704449320138276   5.504101508869928E1  -2.737037117002723E1  -2.914371793422963E1  
 1.390953545232274E11   -2.976671402198458E1  -9.092441452825180E1  -6.715383459571796   6.173981396503788E1  -6.757331771612146   3.053938760197576E1  -2.413941873381094E1  -5.817937338643153E1  
 1.391075794621027E11   -2.677015438971580E1  -1.242567733350916E2  -6.725140945715433   3.795864922601689E1  -6.761216269199974   6.541828120453552  -2.249040742174442E1  -8.368422576162045E1  
 1.391198044009780E11   -2.475240446355604E1  -1.499953945364761E2  -6.664441704960943   1.327423193085053E1  -6.703297509857914  -1.774289692128884E1  -2.203501785060516E1  -1.069191678902507E2  
 1.391320293398533E11   -2.379423380547219E1  -1.763255547488399E2  -6.628209362064375  -1.128568408419206E1  -6.664291161456778  -4.201784422548044E1  -2.257273465962025E1  -1.278442533051652E2  
 1.391442542787286E11   -2.398694965917740E1   1.579850825200942E2  -6.586110846708008  -3.589835512127534E1  -6.616909748116280  -6.685519413455138E1  -2.414025617916828E1  -1.454486181360152E2  
 1.391564792176039E11   -2.528581164110123E1   1.343364069311782E2  -6.570865328151799  -6.099220689604751E1  -6.596408338076030  -9.175035885491563E1  -2.678052722696158E1  -1.557952547267563E2  
 1.391687041564792E11   -2.809647429986919E1   1.145377665366369E2  -6.591337216520169  -8.555372056997899E1  -6.608711278803603  -1.165857720627208E2  -2.958352540921801E1  -1.499586591565394E2  
 1.391809290953545E11   -3.255575924031654E1   1.058729340340280E2  -6.599468739021280  -1.103236067593881E2  -6.624423092335331  -1.410979188818990E2  -2.915125224546815E1  -1.341983421713572E2  
 1.391931540342298E11   -3.758613147084439E1   1.270696899753741E2  -6.608544353380725  -1.344188275276501E2  -6.630220299336791  -1.656156839115182E2  -2.693222365945047E1  -1.365055396057841E2  
 1.392053789731051E11   -3.466679211131668E1   1.638993682693287E2  -6.586830032510735  -1.589894711071104E2  -6.603166973349302   1.695668211161775E2  -2.563868599333812E1  -1.519196820289193E2  
 1.392176039119804E11   -3.032136485309681E1   1.548769936678858E2  -6.558151647311339   1.761838735829909E2  -6.576296925718371   1.453009525501300E2  -2.567654642064001E1  -1.738400993411167E2  
 1.392298288508557E11   -2.860191338471158E1   1.311000535130329E2  -6.556782998224370   1.512056639202947E2  -6.579391372126234   1.206475798994747E2  -2.713493607991066E1   1.587209477006306E2  
 1.392420537897311E11   -2.879444540997414E1   1.026701898604107E2  -6.568968318782722   1.264551762259527E2  -6.595111501193206   9.546912049076329E1  -3.038048120641317E1   1.215050119743145E2  
 1.392542787286064E11   -3.088702596045578E1   6.867097039549073E1  -6.615368912198353   1.018072781717793E2  -6.627056334561464   7.044066465007697E1  -3.408544621221576E1   4.968139225580307E1  
 1.392665036674817E11   -3.530170192621511E1   2.208322099927776E1  -6.677349217148079   7.717596797701762E1  -6.697703200385730   4.610625437208551E1  -3.035693184227284E1  -2.613058087314759E1  
 1.392787286063570E11   -3.801497623636778E1  -5.822592723527691E1  -6.733682305369959   5.289120076545534E1  -6.737731000124528   2.184711721290079E1  -2.628442605749095E1  -6.833626225554335E1  
 1.392909535452323E11   -3.263937128801964E1  -1.155752527715466E2  -6.710265347680043   2.864830793934831E1  -6.730354978713671  -2.357829963913803  -2.400952139568724E1  -9.861647294235679E1  
 1.393031784841076E11   -2.837596448592100E1  -1.553271956989791E2  -6.676268024965942   4.417469695116765  -6.683580193018719  -2.684162673802072E1  -2.308420279354364E1  -1.251315080761037E2  
 1.393154034229829E11   -2.623698889681554E1   1.718251671417014E2  -6.645349111159907  -2.012989025849151E1  -6.657025028546856  -5.156590848060876E1  -2.328787778701752E1  -1.495541385372712E2  
 1.393276283618582E11   -2.551962709425256E1   1.410263339802436E2  -6.615070656503520  -4.491505324196753E1  -6.619651115507716  -7.642411854341697E1  -2.474833027538339E1  -1.722863483239624E2  
 1.393398533007335E11   -2.595970848665950E1   1.096756730398895E2  -6.603049996662747  -6.961196575317798E1  -6.611537737460371  -1.012941250280908E2  -2.812243538418618E1   1.697975104000765E2  
 1.393520782396088E11   -2.739147874241857E1   7.709379338798831E1  -6.618867521572233  -9.449850564064013E1  -6.630610636534302  -1.259048418155420E2  -3.409454270597515E1   1.737852095183457E2  
 1.393643031784841E11   -2.993386486971115E1   4.011409443301673E1  -6.636026589455859  -1.191101840993378E2  -6.660369414160494  -1.507132915813776E2  -3.359470296948811E1  -1.297385165629931E2  
 1.393765281173594E11   -3.226322217775105E1  -1.132789551571153E1  -6.663313594033443  -1.435845149873589E2  -6.678558434029338  -1.752152246215001E2  -2.751550503675819E1  -1.307566565245617E2  
 1.393887530562347E11   -3.213361281647903E1  -7.569469195342099E1  -6.663895511134372  -1.681342037602900E2  -6.686601758138020   1.603937600303975E2  -2.424552175826351E1  -1.494847051600862E2  
 1.394009779951100E11   -3.022075904903495E1  -1.238791299573960E2  -6.659531679047294   1.675691333502917E2  -6.676460115435117   1.356428489178737E2  -2.254391336412837E1  -1.733549196892278E2  
 1.394132029339853E11   -2.907704598162659E1  -1.561883433998414E2  -6.646304063249219   1.430457585385678E2  -6.659230914161215   1.110377218786240E2  -2.191285396238982E1   1.613412644550056E2  
 1.394254278728606E11   -2.907017854978381E1  -1.771557474924715E2  -6.644179926817116   1.184253006521655E2  -6.660367341558761   8.594459488586877E1  -2.223782051526088E1   1.333867370731999E2  
 1.394376528117359E11   -2.947870481223727E1   1.735510523591281E2  -6.656701840622412   9.410992126785754E1  -6.673451298287702   6.154601152541347E1  -2.336038698875341E1   1.034765795337002E2  
 1.394498777506112E11   -2.893412339168397E1   1.735402111146005E2  -6.688762470675913   6.941521564662573E1  -6.711296809413968   3.699483955074009E1  -2.533220368763390E1   7.058447979047658E1  
 1.394621026894865E11   -2.751484994062115E1   1.701446351623459E2  -6.674855518153574   4.477576123565956E1  -6.704461533900511   1.290016564184549E1  -2.780607877223670E1   3.443406042810967E1  
 1.394743276283619E11   -2.578887284061877E1   1.651546841339943E2  -6.648623969656395   2.066408895432987E1  -6.676132143652777  -1.191829864597036E1  -3.003750539139493E1  -9.294434464890511  
 1.394865525672372E11   -2.368410233045673E1   1.533361440903922E2  -6.638030597023760  -3.853194823478492  -6.659346853948263  -3.683489468567521E1  -3.164135131653000E1  -5.953654360160996E1  
 1.394987775061125E11   -2.232543516584530E1   1.352209576384882E2  -6.648087124479016  -2.849465374643010E1  -6.659827363722670  -6.178750186651167E1  -3.271993979930070E1  -1.047667468461380E2  
 1.395110024449878E11   -2.181081560324077E1   1.142938660351974E2  -6.642574390873411  -5.319651373538628E1  -6.655808323150964  -8.626374614782691E1  -3.440583773469161E1  -1.395415657381246E2  
 1.395232273838631E11   -2.237299038190008E1   9.282813843963416E1  -6.659155039564634  -7.782416377988318E1  -6.680620225074861  -1.110075332161951E2  -3.859496936864759E1  -1.600382891411180E2  
 1.395354523227384E11   -2.391554563590583E1   7.285786214224410E1  -6.708548257839653  -1.022986450002476E2  -6.726485277973398  -1.358673633326221E2  -4.274838809227886E1  -1.276967348959013E2  
 1.395476772616137E11   -2.619870145360284E1   5.432553516775785E1  -6.706698805947045  -1.267288209399164E2  -6.733260249918972  -1.598681603386904E2  -3.647301555084730E1  -1.067691953531220E2  
 1.395599022004890E11   -3.089270243329778E1   3.251657429483308E1  -6.669527835492872  -1.509605534378404E2  -6.691847930483753   1.756285380602875E2  -3.208795594004438E1  -1.188450885197566E2  
 1.395721271393643E11   -4.880402692695490E1   4.544596671902745E1  -6.652766116030485  -1.757581475250254E2  -6.674996578348812   1.505796900845866E2  -2.952851129756197E1  -1.397192276992373E2  
 1.395843520782396E11   -3.325349557019353E1   1.499549721100239E2  -6.639380517561465   1.601093403050828E2  -6.668503975102670   1.260240012547188E2  -2.823960331071809E1  -1.652687846163876E2  
 1.395965770171149E11   -2.793594209069326E1   1.282194395414342E2  -6.619047872993495   1.349818749056130E2  -6.642794258242931   1.013569321944278E2  -2.820213325446696E1   1.677591238659185E2  
 1.396088019559902E11   -2.600208822047535E1   1.050689993965442E2  -6.607601058079209   1.101968610928873E2  -6.641158017617848   7.655634255174532E1  -2.952976445441712E1   1.378035764318254E2  
 1.396210268948655E11   -2.594463739303292E1   8.272123687807859E1  -6.626184189194374   8.546794343940941E1  -6.654240506212345   5.188201837780644E1  -3.290911704626418E1   1.033139891234766E2  
 1.396332518337408E11   -2.719181069226877E1   6.089311335987407E1  -6.646727544860087   6.084049723917837E1  -6.683494788397820   2.720117502480549E1  -3.968143740689521E1   4.414702063613400E1  
 1.396454767726162E11   -3.083131775112489E1   3.525053532427868E1  -6.640889330251808   3.641716946416869E1  -6.682952087957782   2.585079802078137  -3.775293891537115E1  -6.832677943547466E1  
 1.396577017114915E11   -4.533888633659688E1  -3.728591905152594  -6.645041031638456   1.188606892720403E1  -6.680294005310890  -2.208831708362497E1  -3.118683271811565E1  -1.137546575936035E2  
 1.396699266503668E11   -3.381222548902496E1   1.696287293091540E2  -6.657285682617609  -1.280278520639672E1  -6.683662335222308  -4.649855560878483E1  -2.784261757067074E1  -1.451042201654939E2  
 1.396821515892421E11   -2.718973270622759E1   1.455039091381127E2  -6.664551802801782  -3.749961963036370E1  -6.691399266501920  -7.078142961884571E1  -2.601304849974106E1  -1.732270290076905E2  
 1.396943765281174E11   -2.433655804853160E1   1.221109731652850E2  -6.663989505508900  -6.184258351569905E1  -6.688525465893402  -9.541449311099942E1  -2.542352856612854E1   1.607880391076590E2  
 1.397066014669927E11   -2.305076427634423E1   1.014880225547528E2  -6.675008654064039  -8.662440871669058E1  -6.697904284055593  -1.199394096084553E2  -2.578995617460780E1   1.361689902270340E2  
 1.397188264058680E11   -2.276678982461178E1   8.355798732425163E1  -6.685320804372642  -1.107639389986992E2  -6.713883799084023  -1.445786782102167E2  -2.697852688766340E1   1.152838348111008E2  
 1.397310513447433E11   -2.314004052212636E1   6.652326902274763E1  -6.659548580221354  -1.355917512207383E2  -6.683250983085570  -1.690210430122224E2  -2.878701128867683E1   9.931004805056283E1  
 1.397432762836186E11   -2.468719169593055E1   5.126196778242121E1  -6.618766225695214  -1.605226393837082E2  -6.651632139587119   1.666505768056269E2  -3.150285090448719E1   8.904246567222810E1  
 1.397555012224939E11   -2.710032056510495E1   4.679770560785995E1  -6.621887274170134   1.749793741287065E2  -6.659328259003956   1.417477895812554E2  -3.412227626313588E1   9.884177942161134E1  
 1.397677261613692E11   -2.847066754002181E1   5.480048891261199E1  -6.628526449415150   1.500383902309620E2  -6.661510810211852   1.169813268743590E2  -3.255787001696857E1   1.126812417518403E2  
 1.397799511002445E11   -2.767112717544561E1   6.091947842361640E1  -6.653013602821988   1.250410455521888E2  -6.701004676209142   9.245350589791305E1  -3.012957263390025E1   1.049021669787826E2  
 1.397921760391198E11   -2.644245792741347E1   5.674759252585688E1  -6.695501471906384   1.005221840637352E2  -6.726833418400258   6.777786567380294E1  -2.883364908879868E1   8.690498792763566E1  
 1.398044009779951E11   -2.615939282778535E1   4.841605006103696E1  -6.735780217467775   7.634140106970013E1  -6.781489334855221   4.351611434552035E1  -2.874400648369088E1   6.868443849589538E1  
 1.398166259168704E11   -2.618244867610741E1   3.776126048415416E1  -6.715888196024900   5.216885306443777E1  -6.751801136184099   1.891698190730219E1  -2.913613891842570E1   5.115265112153590E1  
 1.398288508557457E11   -2.758821439977112E1   2.374362112731434E1  -6.672949532834924   2.755952803025610E1  -6.714773991553204  -5.691770444406849  -3.038174184843887E1   3.061761166823350E1  
 1.398410757946210E11   -3.101020985858659E1   1.904528546392529E1  -6.643151771692132   3.012512358962964  -6.700293420012597  -3.026555124513681E1  -3.320998324829555E1   8.469025837275671  
 1.398533007334963E11   -3.419044506137567E1   4.716804293111996E1  -6.659612536248136  -2.190623525730220E1  -6.685987608242619  -5.475497003361102E1  -4.029186216708386E1   1.807202630958743  
 1.398655256723716E11   -3.059919541333336E1   6.931093573321162E1  -6.651662077005149  -4.677054807081347E1  -6.700159789021127  -7.945599595346509E1  -4.223056144802860E1   7.599078490552617E1  
 1.398777506112470E11   -2.718844146184077E1   6.264354334196860E1  -6.666166161815804  -7.140641565425177E1  -6.718004088880950  -1.040160068813931E2  -3.451526012227512E1   7.500814989772425E1  
 1.398899755501223E11   -2.585464773817262E1   4.674813738836708E1  -6.712246252614643  -9.625692026186090E1  -6.740480804724485  -1.284346600269280E2  -3.116127535312311E1   5.511939340594105E1  
 1.399022004889976E11   -2.568010041488801E1   3.076730328704080E1  -6.732613458897860  -1.205140439848856E2  -6.756279459173797  -1.530687896843674E2  -2.989469786222384E1   3.189788936762743E1  
 1.399144254278729E11   -2.652705938111586E1   1.238443593808962E1  -6.687452926840581  -1.450012556359731E2  -6.734363593751186  -1.776187301888810E2  -2.907526867819477E1   7.842194766534969  
 1.399266503667482E11   -2.988581307344921E1  -9.501205690460589  -6.674719480743192  -1.698353228474200E2  -6.730579722863610   1.577123262483913E2  -2.909691337637792E1  -2.134300932504887E1  
 1.399388753056235E11   -4.052023855707137E1  -2.217669174872132E1  -6.695437770358065   1.651797193125420E2  -6.750639181816844   1.332914885093673E2  -3.033845223638023E1  -5.559355423171252E1  
 1.399511002444988E11   -3.560952543509090E1   1.129246709713187E2  -6.715235053065145   1.408178017724262E2  -6.748649832598876   1.087985834287215E2  -3.224317756511341E1  -9.505736513441322E1  
 1.399633251833741E11   -2.783742831149871E1   9.564044362612935E1  -6.733870720829786   1.159278286455025E2  -6.768980944387216   8.448458230317927E1  -3.462976094253046E1  -1.425697721975502E2  
 1.399755501222494E11   -2.442622169124890E1   7.669949372685441E1  -6.772916917470205   9.146498249328637E1  -6.812806639442159   5.979249793527406E1  -3.601366640751656E1   1.652230430071116E2  
 1.399877750611247E11   -2.268148376858757E1   5.846559892935836E1  -6.795046909419411   6.750490697841208E1  -6.839281905619767   3.568573627573799E1  -3.519366796960814E1   1.219122494731686E2  
 1.400000000000000E11   -2.191047829139474E1   3.905688402070351E1  -6.748379018782478   4.303548277421300E1  -6.789032419130362   1.130942082733735E1  -3.315874044016978E1   8.755557207076070E1  
 1.400122249388753E11   -2.242980135584088E1   1.985716399471305E1  -6.698211968814602   1.881540524775951E1  -6.736186941153426  -1.313559763983353E1  -3.205896784606706E1   5.439284971406939E1  
 1.400244498777506E11   -2.439636160153027E1   5.441901909204960  -6.671074597494567  -6.448325183015895  -6.709121209574496  -3.832470031971113E1  -3.233541800923384E1   2.313089133632314E1  
 1.400366748166259E11   -2.747368578138875E1   5.086683190672289  -6.665397012957975  -3.139589146731525E1  -6.723003916708980  -6.310417473298484E1  -3.357771164461686E1  -1.116478072792974  
 1.400488997555012E11   -2.850904848608849E1   2.507065601346238E1  -6.692637495621411  -5.614435804282577E1  -6.731459838518441  -8.772888573925637E1  -3.559436208097885E1  -2.301182510308433E1  
 1.400611246943765E11   -2.594507368166443E1   3.604107706898822E1  -6.748536906529148  -8.105134001555300E1  -6.778154091799700  -1.121504525512116E2  -3.717712390383348E1  -4.084710220557656E1  
 1.400733496332518E11   -2.327125744178057E1   3.111856354644877E1  -6.803104733010478  -1.052796048537570E2  -6.845520146922784  -1.368570740686711E2  -3.850421614889674E1  -7.207394620386079E1  
 1.400855745721271E11   -2.130841978219945E1   1.656267337578989E1  -6.782319907862897  -1.292504096553670E2  -6.821795705604369  -1.606871765299244E2  -3.973383152625060E1  -1.197960707207779E2  
 1.400977995110024E11   -2.042980740209305E1  -2.494189793223483  -6.743991848141736  -1.537390028975610E2  -6.792915094257231   1.748188896567008E2  -4.027922579340382E1  -1.573841097543519E2  
 1.401100244498778E11   -2.075248655171025E1  -2.381612743331497E1  -6.714741118918340  -1.784115453775965E2  -6.761140788667167   1.501086159235807E2  -3.744167245993876E1   1.791314822198604E2  
 1.401222493887531E11   -2.218475426230921E1  -4.518690611343591E1  -6.712002258826170   1.569406461549297E2  -6.740130813702585   1.252371266181682E2  -3.382891361037591E1   1.580375821658404E2  
 1.401344743276284E11   -2.508529910684486E1  -6.522333480100656E1  -6.723598248257103   1.321126303551835E2  -6.749449970289764   1.004346373017156E2  -3.059141145062804E1   1.355368747931109E2  
 1.401466992665037E11   -3.020042947359762E1  -8.117320140131373E1  -6.735033000970567   1.074768635574719E2  -6.776581648079334   7.603792604272617E1  -2.841232265136028E1   1.110619475060124E2  
 1.401589242053790E11   -4.116819047345772E1  -6.878524172522987E1  -6.771609614068287   8.300742206994131E1  -6.801716748357263   5.182846035467755E1  -2.726592685538590E1   9.048823383939330E1  
 1.401711491442543E11   -3.587503810386576E1   2.939393960937052E1  -6.772932827306583   5.863206645106006E1  -6.809122483820515   2.723320585348028E1  -2.620788899487231E1   7.095742057609590E1  
 1.401833740831296E11   -2.980308459922384E1   1.630119817128998E1  -6.713236385784544   3.450777723356548E1  -6.755348951851945   2.724364874296477  -2.551298347135675E1   4.949324115483115E1  
 1.401955990220049E11   -2.817766097045487E1  -3.941336377045003  -6.679365029537994   9.567707714612663  -6.715093065269294  -2.174389930741488E1  -2.583578308235461E1   2.584898827852732E1  
 1.402078239608802E11   -2.922954472624063E1  -2.330988204005050E1  -6.654730630613853  -1.516412871075921E1  -6.705234307269157  -4.694076631393600E1  -2.730647942728983E1   1.635490037094114  
 1.402200488997555E11   -3.305472398959372E1  -3.306910958064857E1  -6.667586207684417  -3.973417401411667E1  -6.701183163131268  -7.150561723211703E1  -3.011786365666427E1  -2.257681605021904E1  
 1.402322738386308E11   -3.888468980871254E1   7.283136948478974  -6.692012124997702  -6.469942792735675E1  -6.742581939442536  -9.637171886700752E1  -3.532225868980598E1  -4.664335950660794E1  
 1.402444987775061E11   -3.211298514885441E1   4.671538656688829E1  -6.761024090190031  -8.917245376129795E1  -6.797125380702955  -1.210877637131334E2  -4.596967339742392E1  -1.033989778470225E2  
 1.402567237163814E11   -2.703926351349337E1   3.982520396778318E1  -6.805007319771744  -1.133822758822337E2  -6.840381211598379  -1.451296661514422E2  -3.894369890328714E1   1.387254177208710E2  
 1.402689486552567E11   -2.381120832848661E1   2.309417505744846E1  -6.778419638869561  -1.377184465597724E2  -6.814380893304138  -1.694409271665846E2  -3.267887304727705E1   1.073891756536454E2  
 1.402811735941320E11   -2.222339740330742E1   2.691144035725789  -6.721033946145057  -1.622300345912187E2  -6.769622118329996   1.662572403280661E2  -3.031241015703656E1   8.501846942673957E1  
 1.402933985330073E11   -2.176977327340965E1  -1.986815956870135E1  -6.683217098490027   1.730318920717828E2  -6.727143452437434   1.412436792151386E2  -2.984595263968961E1   7.115499112190605E1  
 1.403056234718826E11   -2.260570215085332E1  -4.133869266178961E1  -6.677652966120444   1.487035788225361E2  -6.731718405022773   1.164043886778682E2  -2.976115924679893E1   6.918834305424176E1  
 1.403178484107579E11   -2.464091021780995E1  -6.307407846417476E1  -6.672794307809010   1.235668396951463E2  -6.735428774589096   9.152232999335072E1  -2.834266165517888E1   7.235381526659747E1  
 1.403300733496332E11   -2.834592483746867E1  -8.343545256080806E1  -6.731331604541588   9.883746889893806E1  -6.774039694924122   6.695011104077106E1  -2.642183538711477E1   6.880954526825185E1  
 1.403422982885085E11   -3.733939289862514E1  -1.043669869401061E2  -6.766326786854986   7.463102002673008E1  -6.821059376943559   4.230937403357237E1  -2.494405269852905E1   6.163227951777616E1  
 1.403545232273839E11   -3.951233554671469E1   5.764547336486977E1  -6.783853383756252   5.027938437292237E1  -6.824089626118536   1.794540546244546E1  -2.334169254155638E1   5.391044930163476E1  
 1.403667481662592E11   -2.993821711524221E1   3.558260377843099E1  -6.733953936575226   2.586755168091811E1  -6.765897127793211  -5.946073112682011  -2.188735730590087E1   4.072883599285710E1  
 1.403789731051345E11   -2.674588732985174E1   1.683189140940291E1  -6.689597121596339   1.495565866688347  -6.727781727060608  -3.105440549108152E1  -2.121777227088888E1   2.478951755991873E1  
 1.403911980440098E11   -2.565008528894164E1   1.152827410324209  -6.649115270978713  -2.331124305086928E1  -6.702073235736004  -5.569872563525851E1  -2.139825970789421E1   8.753238050457357  
 1.404034229828851E11   -2.545185851765418E1  -9.696902842486050  -6.631082856031953  -4.800072350426437E1  -6.678787421780196  -8.038595141250326E1  -2.227432327361501E1  -5.830463927463522  
 1.404156479217604E11   -2.588161429716838E1  -1.531292023861380E1  -6.647218566260559  -7.269040308494340E1  -6.678330524432748  -1.053337132557199E2  -2.368720083295697E1  -1.716809687304944E1  
 1.404278728606357E11   -2.588232269430258E1  -1.587810564893866E1  -6.675904988381177  -9.712045170187965E1  -6.717817655418052  -1.303077784723967E2  -2.575041943494511E1  -2.555178787952348E1  
 1.404400977995110E11   -2.525973013990217E1  -1.542699788927349E1  -6.698843981889922  -1.217148161967271E2  -6.755218764552550  -1.548048889607614E2  -2.867580085838944E1  -2.489656777377548E1  
 1.404523227383863E11   -2.389696876471418E1  -1.967161951552043E1  -6.689336232610708  -1.460418601573435E2  -6.727997277151061  -1.790630652617643E2  -3.016674289738622E1  -7.498139677799149  
 1.404645476772616E11   -2.277980725121576E1  -2.920951446932561E1  -6.660527286743804  -1.704169470237495E2  -6.712841956629926   1.558853038885522E2  -2.900028504988656E1   2.604424936355549  
 1.404767726161369E11   -2.222229797988583E1  -4.333716221631288E1  -6.649857023886787   1.649042311232695E2  -6.693493440055686   1.311775326407869E2  -2.816802933357623E1   1.891013035203828  
 1.404889975550122E11   -2.254332763333499E1  -5.849254728252358E1  -6.643794547097802   1.399339017088113E2  -6.689371431815818   1.065506224464631E2  -2.827906877972910E1   4.579314428189493E-2  
 1.405012224938875E11   -2.381808181219260E1  -7.378214624180716E1  -6.673944141641790   1.152381251274182E2  -6.704598536681298   8.165891641530300E1  -2.843318458407861E1   1.831189191855585  
 1.405134474327629E11   -2.611770679571039E1  -8.845820287149816E1  -6.708305579497500   9.077965462962402E1  -6.743553669073153   5.695260779720577E1  -2.861075095503979E1   6.001084087130415  
 1.405256723716382E11   -3.028827410134633E1  -9.570522998426540E1  -6.730008627096115   6.608054249482814E1  -6.788122807272274   3.263247893517785E1  -2.848665092279009E1   1.572028962891536E1  
 1.405378973105135E11   -3.621387386137880E1  -7.077868095386882E1  -6.725276136773886   4.207134522498632E1  -6.770443253814414   8.363180070962411  -2.630652792495387E1   2.343239039580694E1  
 1.405501222493888E11   -3.336418238761061E1  -2.676796451359554E1  -6.702231150039376   1.725137554815271E1  -6.731383456313978  -1.606247852903155E1  -2.385826542518472E1   1.776246152469862E1  
 1.405623471882641E11   -2.928459765608177E1  -2.536813801883460E1  -6.674975504661458  -6.953334671078219  -6.717716280028415  -4.067181805800054E1  -2.245840167508133E1   6.185577428802190  
 1.405745721271394E11   -2.746626761296868E1  -3.521792297985970E1  -6.641260450244608  -3.221863556930914E1  -6.703687507275880  -6.492560580174306E1  -2.200017006794014E1  -7.667461285394745  
 1.405867970660147E11   -2.725082891734904E1  -4.714257727686233E1  -6.637725493292573  -5.670013429044587E1  -6.691859106822954  -8.955195892845094E1  -2.245966264149303E1  -1.978025996980484E1  
 1.405990220048900E11   -2.808055989372738E1  -5.493540736298019E1  -6.663165045848673  -8.145874343451074E1  -6.726269974375259  -1.144205538279933E2  -2.345753955354063E1  -3.086421768399041E1  
 1.406112469437653E11   -2.977422222063187E1  -5.400538243496091E1  -6.699768452811588  -1.061393052813012E2  -6.761798766750617  -1.387419872689228E2  -2.566254331191526E1  -3.898971196741099E1  
 1.406234718826406E11   -3.059688640379131E1  -3.603197870342200E1  -6.692277133919343  -1.302962359159427E2  -6.769677280826094  -1.634680613001710E2  -2.918312492263531E1  -3.114499385953775E1  
 1.406356968215159E11   -2.798780114573979E1  -2.528930501076416E1  -6.681773164633804  -1.546414421189954E2  -6.741491615572241   1.722764229059286E2  -2.920527038425010E1  -3.082137666822375  
 1.406479217603912E11   -2.531781127454390E1  -2.953229843407303E1  -6.638437839346096  -1.792119638689097E2  -6.714158935737725   1.478099746605593E2  -2.635689330768256E1   7.343525665082415  
 1.406601466992665E11   -2.359149644670768E1  -4.101511302892295E1  -6.640566059110961   1.560100316524923E2  -6.701509717596573   1.233427503135007E2  -2.424616165153572E1   2.747458590499115  
 1.406723716381418E11   -2.267922700606299E1  -5.513462486367676E1  -6.635777813488534   1.309055746667297E2  -6.697315501522788   9.876249419988544E1  -2.316504741244612E1  -5.053464439129879  
 1.406845965770171E11   -2.265591141969964E1  -7.103324335822012E1  -6.641895718013101   1.061051131198941E2  -6.720708189719618   7.406365725497871E1  -2.268479056076017E1  -1.245586245893887E1  
 1.406968215158924E11   -2.369969886477024E1  -8.698074726640755E1  -6.687066803702319   8.178636407537103E1  -6.756271605379869   4.959344586122737E1  -2.303158447609203E1  -2.049123518741337E1  
 1.407090464547677E11   -2.565424913978142E1  -9.877304133534065E1  -6.699967989896776   5.690499584926589E1  -6.763208198560763   2.524951773927694E1  -2.421239311268833E1  -2.088127288022455E1  
 1.407212713936430E11   -2.917081795751577E1  -1.000637500888177E2  -6.688397610692427   3.301362095836682E1  -6.749300000574928   7.039021741362911E-1  -2.417787310050030E1  -1.267804027693797E1  
 1.407334963325183E11   -3.187605187211574E1  -8.241902225110108E1  -6.664510101043732   8.379471397148825  -6.722978518181336  -2.396814935221372E1  -2.277208514075547E1  -9.512855708622812  
 1.407457212713937E11   -3.046384624641591E1  -5.858705690624502E1  -6.660224787858402  -1.626548340031922E1  -6.707443971144254  -4.834966523217914E1  -2.138854021412653E1  -1.345094183849182E1  
 1.407579462102690E11   -2.737816392396739E1  -5.606249570012628E1  -6.652085912166624  -4.134604322933720E1  -6.703223357577069  -7.267274897771611E1  -2.057948199284050E1  -2.085573472712012E1  
 1.407701711491443E11   -2.558229547480080E1  -6.479629784354464E1  -6.655442375823712  -6.592438041418183E1  -6.706701260148099  -9.755484925740491E1  -2.040640558046555E1  -2.827288007325295E1  
 1.407823960880196E11   -2.466297379134407E1  -7.894567489308861E1  -6.661421953757965  -9.078985276356676E1  -6.723528497481685  -1.222134156113281E2  -2.044724092583907E1  -3.461039982489564E1  
 1.407946210268949E11   -2.485535671225195E1  -9.250958058009086E1  -6.677091763371749  -1.153654044882290E2  -6.743963389038724  -1.464379737955997E2  -2.089877404828289E1  -3.969689642279902E1  
 1.408068459657702E11   -2.577905973103992E1  -1.063613228530046E2  -6.658165245031593  -1.395090350433637E2  -6.728578627135916  -1.710257457963886E2  -2.142526398614728E1  -3.890351706051585E1  
 1.408190709046455E11   -2.748763618722646E1  -1.192801954104999E2  -6.665735855602615  -1.638785675195333E2  -6.725247641593533   1.643396567130401E2  -2.091301953293889E1  -3.634886155175672E1  
 1.408312958435208E11   -3.012366917209237E1  -1.275042223149754E2  -6.653061798748035   1.710615384353256E2  -6.698351611736912   1.397911972705121E2  -1.977416965921943E1  -3.890002049479803E1  
 1.408435207823961E11   -3.384597583122743E1  -1.296258111517579E2  -6.656607783114633   1.466139957018127E2  -6.709717429569599   1.149367270328403E2  -1.889995261721683E1  -4.638059889807220E1  
 1.408557457212714E11   -3.806104781221104E1  -1.137615843006680E2  -6.670563952220492   1.218599269552314E2  -6.733303105592392   9.063012667969842E1  -1.863613559061908E1  -5.729944793439871E1  
 1.408679706601467E11   -3.941145524185967E1  -8.146802720102328E1  -6.708538784754177   9.705000830455491E1  -6.760207869149614   6.594783136148524E1  -1.884906251142623E1  -6.819828084179376E1  
 1.408801955990220E11   -3.863803984452061E1  -4.920880929006366E1  -6.708511146225839   7.272228384761827E1  -6.780927817750494   4.156093116562150E1  -1.974267005871502E1  -8.145062221257868E1  
 1.408924205378973E11   -3.491824438113368E1  -3.061112404587940E1  -6.709684504236043   4.834972905865477E1  -6.771416140737196   1.733048198918328E1  -2.211769091641068E1  -9.207616198514555E1  
 1.409046454767726E11   -3.158334873749278E1  -2.852104057291866E1  -6.670626806560636   2.388214154904329E1  -6.739413241895767  -7.115600574795913  -2.589263948324904E1  -8.992764577370853E1  
 1.409168704156479E11   -2.913225408613089E1  -3.241637960891372E1  -6.673195246076406  -5.013336520021968E-1  -6.713323795265150  -3.166836689591925E1  -2.791347847430591E1  -5.885510259518398E1  
 1.409290953545232E11   -2.719834151892771E1  -3.848807744674248E1  -6.654214870802966  -2.568395155234493E1  -6.706599667415297  -5.634059073252455E1  -2.469837298516119E1  -4.070031344641284E1  
 1.409413202933985E11   -2.593567612516854E1  -4.672228210108552E1  -6.649909370275584  -5.031991233800046E1  -6.705333667481649  -8.110522869583197E1  -2.179224662586075E1  -4.273896122004184E1  
 1.409535452322738E11   -2.500166580995214E1  -5.565668932125001E1  -6.668053530848370  -7.495262506589936E1  -6.730503571904466  -1.054997091830613E2  -2.005415921106748E1  -5.239283348291716E1  
 1.409657701711491E11   -2.470032373835103E1  -6.333095696789721E1  -6.699725804748808  -9.958971830353302E1  -6.749413291238525  -1.301578054993856E2  -1.916199743603459E1  -6.523376792301383E1  
 1.409779951100244E11   -2.439154341812547E1  -6.936740352993230E1  -6.687958165524450  -1.238979836492074E2  -6.754392164592091  -1.544443052053403E2  -1.937559616679189E1  -7.897976724430176E1  
 1.409902200488998E11   -2.408001833922653E1  -7.554978916569228E1  -6.653911836522231  -1.489394673136223E2  -6.716550226015277  -1.788532849615988E2  -2.051138013419755E1  -8.884588695998431E1  
 1.410024449877751E11   -2.390443219481760E1  -8.183942274241916E1  -6.632246132282798  -1.731682618741735E2  -6.708407970423679   1.563161990521082E2  -2.190632249792782E1  -9.257451063446051E1  
 1.410146699266504E11   -2.375350672821049E1  -8.838924965770082E1  -6.633197788058261   1.617475274364363E2  -6.690623607660067   1.318893442479692E2  -2.301877056199607E1  -8.954674209252643E1  
 1.410268948655257E11   -2.404908406613255E1  -9.560576985264436E1  -6.625505351984006   1.372591148074034E2  -6.691212636202016   1.070863194553634E2  -2.295122094017147E1  -8.486035590250317E1  
 1.410391198044010E11   -2.460039838601970E1  -1.021603949733535E2  -6.656748384002897   1.127063551895205E2  -6.700065474282650   8.197042863870630E1  -2.213425586558873E1  -8.457053715270331E1  
 1.410513447432763E11   -2.578216438081427E1  -1.066077605956932E2  -6.670093625574610   8.814461643896304E1  -6.731550980102846   5.751946813009588E1  -2.121299237846310E1  -9.126009116613102E1  
 1.410635696821516E11   -2.749547095764329E1  -1.029938701849866E2  -6.688766035891910   6.376435729791430E1  -6.743931624236179   3.313333063918969E1  -2.094264591779553E1  -1.027387050752376E2  
 1.410757946210269E11   -2.772705238755147E1  -8.799420197791831E1  -6.682379653638047   3.875999700355386E1  -6.743742036203122   8.840580900776587  -2.166019017906228E1  -1.167075182248707E2  
 1.410880195599022E11   -2.559014343910329E1  -7.755717405264487E1  -6.684429945605109   1.437298836633119E1  -6.733687698806275  -1.620967382832830E1  -2.330707654097731E1  -1.283937857697853E2  
 1.411002444987775E11   -2.299768375120048E1  -8.015074493982397E1  -6.676883429221848  -1.003888944567866E1  -6.733829012444846  -4.095128039744646E1  -2.590484125488397E1  -1.372169232649028E2  
 1.411124694376528E11   -2.103411985799179E1  -8.932084944861187E1  -6.678668125763354  -3.459574483064570E1  -6.738553824611663  -6.537126556494961E1  -2.953430276649325E1  -1.386292707085884E2  
 1.411246943765281E11   -1.973211550115848E1  -1.032101739662316E2  -6.693873198479641  -5.951259472912673E1  -6.729678916660633  -9.014981374119152E1  -3.414093765150376E1  -1.222264652003444E2  
 1.411369193154034E11   -1.912406379930968E1  -1.189477001508887E2  -6.730606538925870  -8.372646999712400E1  -6.791495192832684  -1.148015944597648E2  -3.413914728508363E1  -7.940239700103699E1  
 1.411491442542787E11   -1.929260036154482E1  -1.351813410839705E2  -6.730527900891030  -1.080486981896811E2  -6.785110559963244  -1.390854717367463E2  -3.078937069340434E1  -7.101913540199632E1  
 1.411613691931540E11   -2.024733631948965E1  -1.493932320849580E2  -6.705380626150273  -1.324853796455161E2  -6.746728479941146  -1.636288883789276E2  -2.984961272151499E1  -6.849158496565066E1  
 1.411735941320293E11   -2.174310813542666E1  -1.614822852071486E2  -6.690609774507296  -1.570906936728391E2  -6.718773451005789   1.719094325261916E2  -2.869391721361145E1  -6.154788396398916E1  
 1.411858190709046E11   -2.386744981656590E1  -1.681983360399760E2  -6.665287628711634   1.782934982091517E2  -6.701656687604172   1.472014389347652E2  -2.651813663909402E1  -5.947713166989891E1  
 1.411980440097799E11   -2.602214215489103E1  -1.654898461447854E2  -6.651123006952632   1.532782549620164E2  -6.686713447183288   1.226599933033853E2  -2.449569044268011E1  -6.549314388638476E1  
 1.412102689486552E11   -2.640065515264737E1  -1.567239453366899E2  -6.647371917958784   1.287038601968326E2  -6.677576355708577   9.730810231751326E1  -2.343845668440022E1  -7.670565593808284E1  
 1.412224938875306E11   -2.531374118614147E1  -1.542489310325738E2  -6.670376343617378   1.040915940117894E2  -6.698615112472408   7.313931382068518E1  -2.300506140464843E1  -8.936555731620867E1  
 1.412347188264059E11   -2.449706246386462E1  -1.620783295915053E2  -6.679737822738543   7.966611610054819E1  -6.715487569290895   4.875180481375905E1  -2.321482844082749E1  -1.039106790096995E2  
 1.412469437652812E11   -2.451737744159559E1  -1.747664165903580E2  -6.664579667245328   5.513378955355877E1  -6.712479097903212   2.369421654053286E1  -2.478026194142648E1  -1.207980159976964E2  
 1.412591687041565E11   -2.545906001571759E1   1.715104970536905E2  -6.665404361569710   3.061480650688059E1  -6.693301456452289  -1.142398575838946  -2.839853824725414E1  -1.341184823167340E2  
 1.412713936430318E11   -2.780945413052344E1   1.579979584574747E2  -6.684476324513327   5.876882088661397  -6.695515773034803  -2.558521940631743E1  -3.607262761895976E1  -1.227998460186961E2  
 1.412836185819071E11   -3.212535475383951E1   1.537271019304479E2  -6.673827468545803  -1.865934394873547E1  -6.693687382135408  -5.032085492472538E1  -3.345452305885524E1  -5.120871672789533E1  
 1.412958435207824E11   -3.639145582956574E1  -1.698476261310323E2  -6.686453519924804  -4.308631853166631E1  -6.711416579072049  -7.485345131973502E1  -2.766983808456734E1  -5.343187925263330E1  
 1.413080684596577E11   -3.146034789839269E1  -1.427647720938196E2  -6.702293113291336  -6.825390158304067E1  -6.750616175669983  -9.947927395000099E1  -2.502896612880555E1  -6.687275223490080E1  
 1.413202933985330E11   -2.793656868971743E1  -1.531574987303894E2  -6.729285804320035  -9.240629543280946E1  -6.750525202795621  -1.237926006303266E2  -2.395476263042530E1  -8.358839807688061E1  
 1.413325183374083E11   -2.627039590078244E1  -1.698295041704916E2  -6.714850286931512  -1.169461839939731E2  -6.736987327094083  -1.484029939736911E2  -2.459044089418581E1  -1.048946480446670E2  
 1.413447432762836E11   -2.560325156713219E1   1.695927949183100E2  -6.705728535446038  -1.415734343051750E2  -6.726619868278547  -1.726475966417523E2  -2.784228726756163E1  -1.254467322842226E2  
 1.413569682151589E11   -2.589390139607820E1   1.445090225332661E2  -6.707127393462711  -1.660471500879447E2  -6.728960987659601   1.620643115747126E2  -3.874664040557485E1  -1.325447390847789E2  
 1.413691931540342E11   -2.722224764932538E1   1.151807097666355E2  -6.739143462377976   1.688225008658849E2  -6.764837292472407   1.377235617167090E2  -3.250767145371456E1  -6.375358100061014  
 1.413814180929096E11   -2.936608851590196E1   7.831288645914944E1  -6.778650019527087   1.445486500891399E2  -6.797581991237662   1.129732674874335E2  -2.480744441108930E1  -2.206708859761590E1  
 1.413936430317849E11   -3.132504047687407E1   3.308766286376380E1  -6.812212476041506   1.200102268924101E2  -6.830944477653993   8.862888327988236E1  -2.117537821274759E1  -4.139399678219188E1  
 1.414058679706602E11   -3.156985523519585E1  -1.458083895964881E1  -6.829697663622913   9.603831960101566E1  -6.846998573394173   6.473726116874690E1  -1.919296120950754E1  -6.150029107155601E1  
 1.414180929095355E11   -3.007332516499182E1  -5.187571409989758E1  -6.780597847285504   7.174927200966609E1  -6.815482069086697   4.048086137875438E1  -1.833214867057170E1  -8.295066720002451E1  
 1.414303178484108E11   -2.877693068575094E1  -8.034221190026123E1  -6.726927433060749   4.741684038619793E1  -6.744488685404198   1.593088347828222E1  -1.857284499970583E1  -1.039816390682705E2  
 1.414425427872861E11   -2.862754272557720E1  -1.003560270874293E2  -6.685467750512721   2.236179863382277E1  -6.698589645301071  -8.422009088862101  -1.988294517341595E1  -1.231668792827169E2  
 1.414547677261614E11   -2.898692764112941E1  -1.115037046067049E2  -6.652611942701159  -2.310154678640186  -6.678879588501532  -3.340185285006392E1  -2.246433886368952E1  -1.395707144410928E2  
 1.414669926650367E11   -2.895084660544353E1  -1.131942407662287E2  -6.662728219861299  -2.699214194938730E1  -6.675805134737455  -5.815919498276552E1  -2.689151099225094E1  -1.474574163808310E2  
 1.414792176039120E11   -2.776812234514422E1  -1.153114172104816E2  -6.692826906108714  -5.158600923651247E1  -6.709677927025260  -8.304946844064867E1  -3.243460269651683E1  -1.204418034175013E2  
 1.414914425427873E11   -2.669982592964579E1  -1.229588239494561E2  -6.710729819947451  -7.614946874515437E1  -6.753186237688260  -1.071060000059462E2  -2.871469456054237E1  -8.078259111539028E1  
 1.415036674816626E11   -2.585165512452439E1  -1.297591652056902E2  -6.681225042947279  -1.004104666631019E2  -6.705479578493669  -1.312382819423311E2  -2.496991492497207E1  -8.849065153268089E1  
 1.415158924205379E11   -2.491765577456567E1  -1.398320172419396E2  -6.624953882140537  -1.252047382635475E2  -6.651067290073997  -1.555109908309945E2  -2.358722982743799E1  -1.032953813663892E2  
 1.415281173594132E11   -2.463987490022372E1  -1.535928709110729E2  -6.587285688414393  -1.500429239357152E2  -6.606100222003982   1.793998626691934E2  -2.392038929197975E1  -1.193844444513390E2  
 1.415403422982885E11   -2.570166584309313E1  -1.666540564874741E2  -6.583846169669795  -1.749387565416160E2  -6.605131693401794   1.545904752398953E2  -2.565899820868672E1  -1.333781111791670E2  
 1.415525672371638E11   -2.781085917969292E1  -1.722686001367019E2  -6.587153105996287   1.600323944729901E2  -6.618707821338947   1.297908202819000E2  -2.928025272265554E1  -1.404769081718498E2  
 1.415647921760391E11   -2.963976151762831E1  -1.599152885640973E2  -6.610382441582261   1.353889653629464E2  -6.651544398514657   1.052481617838974E2  -3.419777893326983E1  -1.217733569192381E2  
 1.415770171149144E11   -2.812107857619257E1  -1.452702469195902E2  -6.684667905184022   1.110955766636901E2  -6.703603943772369   8.062655159219989E1  -3.247703468613454E1  -7.599559349852719E1  
 1.415892420537897E11   -2.577441599378846E1  -1.430068814778991E2  -6.675795610269639   8.691834206145452E1  -6.693856173057708   5.653554833971553E1  -2.823354180352290E1  -7.362144066196072E1  
 1.416014669926650E11   -2.311169320710041E1  -1.495688704150878E2  -6.612728099408256   6.236723921720837E1  -6.650443789719499   3.209175327680202E1  -2.685638756930359E1  -8.257061061192793E1  
 1.416136919315403E11   -2.121134224774152E1  -1.645061018357747E2  -6.593870046257731   3.759050678067398E1  -6.618490370444492   7.173324789080667  -2.691828270518083E1  -8.563447912233060E1  
 1.416259168704157E11   -2.023793358772496E1   1.767280685957852E2  -6.588087851722640   1.283483907872405E1  -6.614260031553472  -1.753476718862197E1  -2.689030227082280E1  -7.995714015462532E1  
 1.416381418092910E11   -2.013010384981554E1   1.567230406019993E2  -6.591329180525010  -1.154442245415415E1  -6.626648866618288  -4.251384334377441E1  -2.531825610338136E1  -7.244357326153798E1  
 1.416503667481663E11   -2.086161792193563E1   1.372706071093452E2  -6.646008103642285  -3.642235718932658E1  -6.666340039182157  -6.706355128954715E1  -2.293529881759366E1  -7.294367761917553E1  
 1.416625916870416E11   -2.216177499025547E1   1.185897263105128E2  -6.699507666928268  -6.100345115227799E1  -6.734740343482429  -9.153543479277496E1  -2.083462507557560E1  -8.073657490298606E1  
 1.416748166259169E11   -2.416263879658530E1   9.885086076355444E1  -6.741019952460477  -8.531085328813317E1  -6.750779531546115  -1.155548036572498E2  -1.918017471832674E1  -9.325845875397708E1  
 1.416870415647922E11   -2.781403359994265E1   7.648211244498980E1  -6.678633028333445  -1.092020640713506E2  -6.714433818857554  -1.396218769483445E2  -1.827553205091260E1  -1.102548395214331E2  
 1.416992665036675E11   -3.463217777747086E1   5.891995741959244E1  -6.623042376405889  -1.340539670075330E2  -6.647046722855746  -1.640058961003736E2  -1.832794801214886E1  -1.286410381257414E2  
 1.417114914425428E11   -4.915124119575171E1   1.072814848552998E2  -6.567516587547686  -1.588088351406499E2  -6.606803656800643   1.715406155650524E2  -1.939220412399546E1  -1.467441507435713E2  
 1.417237163814181E11   -4.032209440496894E1   1.724313653061199E2  -6.538872149091174   1.762983541640356E2  -6.576616317461011   1.463180986611023E2  -2.158583324738858E1  -1.638697410935507E2  
 1.417359413202934E11   -3.839964561056269E1   1.692348077480488E2  -6.545407014292999   1.513432423430383E2  -6.577445694723912   1.214037432134092E2  -2.539711295068160E1  -1.753172015421317E2  
 1.417481662591687E11   -3.984903528812551E1  -1.740538366401199E2  -6.581077292920853   1.268259903978764E2  -6.609436132697605   9.699183829615593E1  -3.204106465508622E1  -1.650242852854235E2  
 1.417603911980440E11   -3.775556056685924E1  -1.447866409672357E2  -6.623444749275094   1.023611858302641E2  -6.650489120917221   7.254123154082177E1  -3.141702386250229E1  -1.044078147021951E2  
 1.417726161369193E11   -3.303966061323214E1  -1.270074627681107E2  -6.599520841530693   7.812783314984571E1  -6.628838696220686   4.820360246502870E1  -2.609651055038516E1  -1.000210383234256E2  
 1.417848410757946E11   -2.814344193830950E1  -1.315588191739331E2  -6.558548637205150   5.377854453929938E1  -6.590221570883921   2.363336605073277E1  -2.375431252972122E1  -1.115751414016977E2  
 1.417970660146699E11   -2.495826883723811E1  -1.472407391842838E2  -6.532492545844599   2.894253104952398E1  -6.556824773229103  -9.973977528062169E-1  -2.301207828405988E1  -1.234051419016371E2  
 1.418092909535452E11   -2.322996293964853E1  -1.639816805235017E2  -6.516513586487555   4.016239851088041  -6.540440017796431  -2.573714037659845E1  -2.313738048258350E1  -1.329904460350799E2  
 1.418215158924205E11   -2.250272732207881E1  -1.795431333988639E2  -6.523279902164281  -2.081024949569536E1  -6.548062079956841  -5.071449430943529E1  -2.364244029239422E1  -1.382972606568746E2  
 1.418337408312958E11   -2.242963859040202E1   1.684585313680825E2  -6.548657284320946  -4.540579413185855E1  -6.573371657268140  -7.525991899167393E1  -2.397511582108066E1  -1.404672439232930E2  
 1.418459657701711E11   -2.244409191196861E1   1.599428902289852E2  -6.581550381601655  -6.999891196726348E1  -6.620465781161506  -9.987169112733564E1  -2.357072937214885E1  -1.422446019015538E2  
 1.418581907090465E11   -2.264344598791680E1   1.523679169619058E2  -6.559337453091400  -9.427049105067837E1  -6.586183597425388  -1.242491380718016E2  -2.289178589855443E1  -1.515660592682420E2  
 1.418704156479218E11   -2.278325270010130E1   1.499212669343571E2  -6.530117089550415  -1.191441860839266E2  -6.568247576001729  -1.488067204808328E2  -2.329596734536093E1  -1.668974138838439E2  
 1.418826405867971E11   -2.208527780657739E1   1.479009928730119E2  -6.525462046258007  -1.437914186834794E2  -6.555991022962418  -1.737459403125643E2  -2.519821545446090E1   1.751776405517796E2  
 1.418948655256724E11   -2.095874266773324E1   1.416153486557198E2  -6.535699232563277  -1.687121386041690E2  -6.568113523916967   1.616766811819947E2  -3.002000820241532E1   1.570682747142453E2  
 1.419070904645477E11   -2.019638755360750E1   1.310141201905745E2  -6.582628139700659   1.661754121062355E2  -6.606137517280835   1.366948184655939E2  -5.272624660473115E1  -1.631347848185799E2  
 1.419193154034230E11   -1.979878664744496E1   1.194828807537758E2  -6.660630976572436   1.418379608137199E2  -6.666478416425520   1.119993049221348E2  -2.997460556794583E1  -7.145313955601891E1  
 1.419315403422983E11   -1.968164184959296E1   1.080889783409629E2  -6.755192442060069   1.171915432311454E2  -6.765859719663880   8.797747969471399E1  -2.377672687766059E1  -8.982214377332129E1  
 1.419437652811736E11   -1.980801898049876E1   9.389817798747563E1  -6.750036570838547   9.373589951641694E1  -6.779621885341304   6.412152200184941E1  -2.036717717079396E1  -1.121449308302531E2  
 1.419559902200489E11   -2.084629348018174E1   8.004852054291811E1  -6.677864963090285   6.949736746174837E1  -6.699182280731312   3.984865300608586E1  -1.878390925889659E1  -1.368423483949249E2  
 1.419682151589242E11   -2.248559793359173E1   7.121620114738249E1  -6.613800134877492   4.483982946890023E1  -6.642858379627256   1.528439178535306E1  -1.849003923189552E1  -1.613972079263490E2  
 1.419804400977995E11   -2.408556820370711E1   6.823657100456686E1  -6.575639479964594   2.005036229348559E1  -6.591231757027473  -9.170332277486855  -1.929923580889199E1   1.739814890048552E2  
 1.419926650366748E11   -2.496968531733762E1   6.937345055631248E1  -6.555872386379283  -4.498969229092676  -6.568485131966235  -3.415874373928043E1  -2.146652795607954E1   1.494348877033368E2  
 1.420048899755501E11   -2.529304243458274E1   6.871545169193367E1  -6.579748549570570  -2.950967162820691E1  -6.597835003297964  -5.907456315351703E1  -2.570076209586183E1   1.232929365384107E2  
 1.420171149144254E11   -2.528961292722721E1   6.609724218875677E1  -6.632471318620390  -5.417616961513549E1  -6.635961937522188  -8.379173838446306E1  -3.622222100187359E1   8.933384945311650E1  
 1.420293398533007E11   -2.499315558159165E1   6.011615711412824E1  -6.652236590477153  -7.848683019227259E1  -6.677268650982254  -1.079623354035155E2  -3.290124566035802E1  -9.057353282756593E1  
 1.420415647921760E11   -2.544111841179170E1   4.777926215566627E1  -6.618812877685105  -1.024932908736695E2  -6.643452720557448  -1.325133392012122E2  -2.533951635969954E1  -1.228946797641300E2  
 1.420537897310513E11   -2.735392865049594E1   3.654012696484469E1  -6.582451697414467  -1.274718756924910E2  -6.585379399990770  -1.569423692907800E2  -2.261394776165142E1  -1.498569290106073E2  
 1.420660146699266E11   -3.023669504731181E1   3.553745847585623E1  -6.553650303390354  -1.521416671588289E2  -6.567612186952472   1.781690361784516E2  -2.185051910468668E1  -1.758838779617664E2  
 1.420782396088019E11   -3.210342831156417E1   4.964274811548265E1  -6.544793595384974  -1.769531338130437E2  -6.563559174561398   1.531540884160376E2  -2.263501171123352E1   1.582705054862175E2  
 1.420904645476773E11   -3.142060181064499E1   6.191981269800892E1  -6.573856298849761   1.582992067652247E2  -6.590953638790531   1.283132820738208E2  -2.525856249002691E1   1.318418688967562E2  
 1.421026894865526E11   -3.029263503442707E1   6.322744938359497E1  -6.625367920721303   1.336222013975612E2  -6.641168803404537   1.037420691622186E2  -3.114720063984487E1   1.024448263849921E2  
 1.421149144254279E11   -2.895596579057391E1   5.974564480543695E1  -6.669792270566295   1.096048550733360E2  -6.681693097827480   7.957565509331970E1  -4.633318819681075E1  -6.459657595710726E1  
 1.421271393643032E11   -2.814010338502282E1   4.578772335467314E1  -6.618024717002555   8.540906716579697E1  -6.643318032809297   5.514531663900114E1  -2.972861212420568E1  -1.207329004586787E2  
 1.421393643031785E11   -2.925049325930053E1   2.662664474819579E1  -6.588024576756932   6.055888637114001E1  -6.606185841660697   3.093496774400540E1  -2.540455906949268E1  -1.478769753646730E2  
 1.421515892420538E11   -3.241035007456203E1   1.253659147991197E1  -6.547726176851229   3.588483708534365E1  -6.576432846510535   6.257342527267577  -2.376789178349685E1  -1.739141128680323E2  
 1.421638141809291E11   -3.808238840459959E1   1.337982589435125E1  -6.544895847494845   1.078926986343712E1  -6.578207810031691  -1.882210835681758E1  -2.368240959965657E1   1.608246952557235E2  
 1.421760391198044E11   -4.054197516968955E1   6.260159340352936E1  -6.558487208821551  -1.373609960268192E1  -6.590256010677664  -4.360231888850240E1  -2.507116302205187E1   1.347029677508499E2  
 1.421882640586797E11   -3.624156416405361E1   8.475236281615074E1  -6.616789011498390  -3.808259597605485E1  -6.638890067620475  -6.846900885790832E1  -2.852036403822658E1   1.063636645448788E2  
 1.422004889975550E11   -3.274551275395260E1   8.192365904741676E1  -6.656913169900668  -6.252818073032113E1  -6.701401911357922  -9.273837355309307E1  -3.802878795882116E1   6.621103946007989E1  
 1.422127139364303E11   -3.076948692333369E1   6.065874882111609E1  -6.634660525566804  -8.684573973203931E1  -6.669922502473558  -1.167017322012080E2  -3.703273827597851E1  -1.121926120260188E2  
 1.422249388753056E11   -3.150715455789147E1   3.614165400729036E1  -6.587185204307971  -1.112190740240802E2  -6.628311599764500  -1.416358738339257E2  -2.961967461761092E1  -1.455010414210045E2  
 1.422371638141809E11   -3.562821828433334E1   1.323448913368400E1  -6.545396132996488  -1.361574522366596E2  -6.584055912857473  -1.660120090417856E2  -2.699296456229512E1  -1.722642593155215E2  
 1.422493887530562E11   -5.053970606334310E1  -1.729040367252067  -6.542317514379945  -1.610260948110927E2  -6.572674932976844   1.690028376872361E2  -2.661248244424090E1   1.621757760676540E2  
 1.422616136919316E11   -3.908930378287505E1   1.475090869877297E2  -6.560878907929213   1.739279442329721E2  -6.597064657924735   1.439174597793386E2  -2.801365005368795E1   1.368566815593223E2  
 1.422738386308069E11   -3.252791552184225E1   1.284998028209091E2  -6.619319123553438   1.491344050854037E2  -6.648173958596708   1.190665246784143E2  -3.224056899817815E1   1.098542842899660E2  
 1.422860635696822E11   -2.923879410686441E1   1.138181209753684E2  -6.708696357339478   1.249823414056598E2  -6.755233942647678   9.481420567336720E1  -5.152779825010925E1   2.315310776065540E1  
 1.422982885085575E11   -2.666102591924850E1   9.348735958157315E1  -6.736763585625671   1.010451427404509E2  -6.780025268124682   7.045387178089017E1  -3.174497327645853E1  -1.116516397270410E2  
 1.423105134474328E11   -2.594927986580445E1   6.884910717286006E1  -6.691456923066814   7.702751805830195E1  -6.729732589502537   4.639791371526653E1  -2.614603599346500E1  -1.440189228016584E2  
 1.423227383863081E11   -2.685261181952712E1   4.677949751494949E1  -6.646840036447982   5.251237483352171E1  -6.702611041125135   2.187537751082094E1  -2.372423226374566E1  -1.706236274592854E2  
 1.423349633251834E11   -2.922621615654012E1   2.786258250690307E1  -6.613310617042148   2.781996291991593E1  -6.653947043114528  -2.572106362396993  -2.282865178582520E1   1.646530371975383E2  
 1.423471882640587E11   -3.355470590511881E1   1.455717821917708E1  -6.600728445141407   2.924815033602964  -6.644276122960577  -2.725362183702110E1  -2.306888387378864E1   1.414917233286692E2  
 1.423594132029340E11   -4.256985470934966E1   2.136428676908629E1  -6.592211561875350  -2.202038680907700E1  -6.626651730693383  -5.212220515643845E1  -2.451128834087546E1   1.205109025580541E2  
 1.423716381418093E11   -3.917559101299261E1   1.254884574671025E2  -6.627125328675562  -4.661021097296570E1  -6.679372945713300  -7.661967653192274E1  -2.762420779289953E1   1.044088813789222E2  
 1.423838630806846E11   -3.135859730605648E1   1.207174803678689E2  -6.643828664716587  -7.078988030921569E1  -6.696488911488292  -1.011731795691817E2  -3.297088424954070E1   1.178810200678364E2  
 1.423960880195599E11   -2.810624618431412E1   1.043170412908626E2  -6.625466610217782  -9.531970157448045E1  -6.661478258048336  -1.256236768052397E2  -2.954077003727019E1   1.554549251831230E2  
 1.424083129584352E11   -2.675006735765255E1   9.163702889409137E1  -6.604908655244281  -1.202799167795399E2  -6.627528808590172  -1.500727655239342E2  -2.483408428686692E1   1.464198800610200E2  
 1.424205378973105E11   -2.558374163286942E1   8.174389170603814E1  -6.583125618156036  -1.448024652129809E2  -6.632203307077242  -1.748986617986214E2  -2.228613247231493E1   1.253568118147472E2  
 1.424327628361858E11   -2.466667871465838E1   7.160320214599375E1  -6.593325901992507  -1.692681912710317E2  -6.627738981002833   1.603083945011086E2  -2.095697994773905E1   1.008799222744947E2  
 1.424449877750611E11   -2.391235043550337E1   6.071359177555942E1  -6.625170195980068   1.657996171697081E2  -6.647170861049431   1.358275170341768E2  -2.056477814319830E1   7.457535002999643E1  
 1.424572127139364E11   -2.362335434113185E1   4.804353999624980E1  -6.660352848104619   1.414815279511811E2  -6.705753081923449   1.109916023472361E2  -2.091162558135819E1   4.619284328472492E1  
 1.424694376528117E11   -2.379079979810448E1   3.655420485697622E1  -6.708415166714325   1.171695479809505E2  -6.749763208746310   8.669652516192494E1  -2.213858937709637E1   1.557552607068277E1  
 1.424816625916870E11   -2.384979072784990E1   2.475655339763316E1  -6.679309876091383   9.320768805869504E1  -6.704548012253806   6.284528118986714E1  -2.455885030221686E1  -1.798515949933621E1  
 1.424938875305624E11   -2.455362210994181E1   8.824783139454082  -6.625455165623393   6.883778296899072E1  -6.643728021239459   3.811898714360100E1  -2.826169687153384E1  -5.335990032815679E1  
 1.425061124694377E11   -2.657480511083062E1  -7.403581301747028  -6.579953183786402   4.418518344413431E1  -6.599792639882248   1.330760075784600E1  -3.398951184199303E1  -1.021916447191800E2  
 1.425183374083130E11   -3.036154652952626E1  -2.070119319801225E1  -6.552678980740259   1.869043960084384E1  -6.574981397579111  -1.109747751637998E1  -3.870686654861284E1   1.665742318739285E2  
 1.425305623471883E11   -3.771302589330745E1  -1.424534122889337E1  -6.559426401133599  -5.838734065640298  -6.563127674626710  -3.645090360847005E1  -3.472033912094202E1   8.455556161591534E1  
 1.425427872860636E11   -3.828537117319836E1   6.372559787679614E1  -6.609394915910980  -3.076131682632958E1  -6.613951257568457  -6.126339012326136E1  -3.138716415649901E1   3.256443014347028E1  
 1.425550122249389E11   -3.095160605535588E1   7.696152399436156E1  -6.676668912030530  -5.496356117149298E1  -6.692637707294888  -8.575421230556491E1  -2.918646525209064E1  -1.407478474762633E1  
 1.425672371638142E11   -2.657191214824911E1   6.459694850011886E1  -6.684320364612184  -7.936421153495523E1  -6.698833798577191  -1.096705055716587E2  -2.776642925386341E1  -6.231888497715572E1  
 1.425794621026895E11   -2.451577072744783E1   4.489265193225374E1  -6.646270881742733  -1.036596773412907E2  -6.679691807086128  -1.340212801237834E2  -2.673246161022652E1  -1.078565357497945E2  
 1.425916870415648E11   -2.390682660245562E1   2.608139847757119E1  -6.615840713150170  -1.280658014539424E2  -6.627085336814228  -1.587902042587010E2  -2.598872657423449E1  -1.481771705696305E2  
 1.426039119804401E11   -2.425766564243168E1   9.010390393123855  -6.588984093259003  -1.530508902260625E2  -6.606648726261332   1.767087463538705E2  -2.544055768697547E1   1.743829238787224E2  
 1.426161369193154E11   -2.523651055245140E1  -6.808403675672792  -6.565092528758994  -1.775788054800118E2  -6.601515228346766   1.519264234707991E2  -2.544338973846594E1   1.393407095051074E2  
 1.426283618581907E11   -2.698087456627259E1  -2.136353968880311E1  -6.596362947816946   1.575457148675233E2  -6.637939727776035   1.267678825253655E2  -2.618607433978422E1   1.052104084451039E2  
 1.426405867970660E11   -3.009213398772294E1  -3.455681246611087E1  -6.660088542574626   1.330251337108287E2  -6.672114528222007   1.025816934074011E2  -2.827197176559823E1   6.926172198953509E1  
 1.426528117359413E11   -3.588603955715932E1  -2.877244177722417E1  -6.663528956369917   1.087325328023417E2  -6.692889706312268   7.840289662928161E1  -3.389431743999266E1   2.938855807295141E1  
 1.426650366748166E11   -3.672518972416213E1   1.891753514374684E1  -6.621709649578421   8.413112431676572E1  -6.648121885490810   5.406192750515080E1  -5.117405316472904E1  -5.430204230702262E1  
 1.426772616136919E11   -3.300652902368022E1   2.341584644366699E1  -6.585653289220286   6.001109833300324E1  -6.604758658940785   2.947560516434787E1  -3.628770176953956E1   1.698916201135920E2  
 1.426894865525672E11   -3.135341689098781E1   1.613161236864931E1  -6.558033070383517   3.538017693943231E1  -6.593395751625020   4.581959745859657  -3.093822302801222E1   1.385416796734714E2  
 1.427017114914425E11   -3.120260843519490E1   4.320213299772358  -6.548566083322412   1.045651350784848E1  -6.578361086340912  -2.014817260293159E1  -2.864918040131255E1   1.114545793106635E2  
 1.427139364303178E11   -3.255674333985655E1  -8.351052350933180  -6.554183674324315  -1.445998789685394E1  -6.595916978746878  -4.506831858655714E1  -2.781496308647721E1   8.426912423138299E1  
 1.427261613691932E11   -3.642840846657584E1  -2.153993116384645E1  -6.618235388949211  -3.918257028698049E1  -6.626824970608412  -6.944027696048950E1  -2.861193508349295E1   5.432813610574825E1  
 1.427383863080685E11   -4.926737068814681E1   2.659808540070848E1  -6.650321680011673  -6.332540484247105E1  -6.663636449252239  -9.403145230778561E1  -3.208706264412312E1   2.163642509025194E1  
 1.427506112469438E11   -3.690304945340548E1   8.808637988414141E1  -6.612076800991518  -8.773780080936396E1  -6.631114776189667  -1.182926979757283E2  -4.650095963169864E1  -1.332591517019314E1  
 1.427628361858191E11   -3.160410215162014E1   7.952718801053157E1  -6.590946002225679  -1.124422652791589E2  -6.606409986499926  -1.426950881742562E2  -3.595216220357762E1   1.439180073796518E2  
 1.427750611246944E11   -2.895159033141701E1   6.893753372920440E1  -6.576468419912969  -1.372357522170047E2  -6.589319192578501  -1.672575719448691E2  -2.899433061914897E1   1.159876656037220E2  
 1.427872860635697E11   -2.759029989117368E1   5.871788288528064E1  -6.568793798549258  -1.617946305087047E2  -6.594529041442130   1.678204910634669E2  -2.598410775862914E1   8.775897855635849E1  
 1.427995110024450E11   -2.677729669140810E1   4.983383147227853E1  -6.586145350242699   1.732830551697315E2  -6.601293871566279   1.431007297868227E2  -2.431315885860110E1   5.981406946978782E1  
 1.428117359413203E11   -2.642987939446730E1   4.514451792759137E1  -6.612188822891960   1.483741730643855E2  -6.640739619046244   1.186257945072168E2  -2.360915938739290E1   3.057760986129123E1  
 1.428239608801956E11   -2.581610121957030E1   4.469636120644369E1  -6.664849630576604   1.237549562201739E2  -6.676337185742922   9.410483003944628E1  -2.353983740271257E1  -2.904441328900292  
 1.428361858190709E11   -2.431868561311655E1   4.309498024402852E1  -6.667937839689204   9.943193730134553E1  -6.674915018842413   6.968768501807418E1  -2.448201327572675E1  -4.272170073795460E1  
 1.428484107579462E11   -2.277644064177189E1   3.481335557370184E1  -6.641331089273745   7.540996323266261E1  -6.666935807495952   4.522686732728760E1  -2.586237701516548E1  -8.870532707433323E1  
 1.428606356968215E11   -2.178161028325382E1   2.356645963290934E1  -6.635117614677927   5.054421893958459E1  -6.644342614234174   2.107130831220371E1  -2.651706952051167E1  -1.397231954594058E2  
 1.428728606356968E11   -2.118671562901004E1   1.070436100770523E1  -6.613567388060088   2.615553760623273E1  -6.623759568431345  -3.841452563149753  -2.575645009124350E1   1.715121002384683E2  
 1.428850855745721E11   -2.116160140731916E1  -3.603645813922122  -6.604834216562622   1.547432562718969  -6.628666093733519  -2.846060887546943E1  -2.448064889612446E1   1.310353814353462E2  
 1.428973105134474E11   -2.187160367323788E1  -1.829341070505051E1  -6.621018809912515  -2.339147081369271E1  -6.641504493509518  -5.310618083165020E1  -2.375012964018222E1   9.651378953744067E1  
 1.429095354523228E11   -2.351555939986846E1  -3.085343557728513E1  -6.627010085510973  -4.737419648257276E1  -6.652267585586092  -7.758161838693587E1  -2.402053866315985E1   6.353732058003523E1  
 1.429217603911981E11   -2.618944790942733E1  -3.724716230599005E1  -6.603622777389416  -7.181652079056732E1  -6.618977399234059  -1.018133624608730E2  -2.580386013803013E1   3.351855512682793E1  
 1.429339853300734E11   -2.858588121147869E1  -2.952949705915913E1  -6.562750425917634  -9.677136021741509E1  -6.571752481086192  -1.261243256822127E2  -2.970896481550801E1   9.949355564583058  
 1.429462102689487E11   -2.901133343101561E1  -1.195571570121672E1  -6.528388937022008  -1.215870883609238E2  -6.547228525159523  -1.508806097232375E2  -3.769207889336479E1   5.810426703133926E-1  
 1.429584352078240E11   -2.717583531569392E1  -4.707645586896991  -6.526120453065866  -1.461993746876354E2  -6.541945406077678  -1.758165350360924E2  -3.987721025881939E1   1.021096304442705E2  
 1.429706601466993E11   -2.540527112342445E1  -1.098690144203942E1  -6.542496558891091  -1.713177161694986E2  -6.557817351707883   1.594297906520764E2  -3.117029454537373E1   9.772653143778268E1  
 1.429828850855746E11   -2.471899849184656E1  -2.397383438962553E1  -6.579355710226858   1.640309711951521E2  -6.575555911477991   1.346518169745418E2  -2.765171239495067E1   7.550383347940903E1  
 1.429951100244499E11   -2.553346473958780E1  -4.077669512622433E1  -6.640169407647622   1.394708917183280E2  -6.627397962275289   1.099922556983627E2  -2.673541754377750E1   5.037303163805574E1  
 1.430073349633252E11   -2.832996805528048E1  -5.709035939207531E1  -6.652779084180681   1.155372875763848E2  -6.646649829091417   8.578510849729123E1  -2.877756909362095E1   2.698670696714951E1  
 1.430195599022005E11   -3.454931806696655E1  -6.193459544887765E1  -6.619385909936558   9.098489658954891E1  -6.602773795012007   6.137615046798822E1  -3.414965715506364E1   2.297366601352350E1  
 1.430317848410758E11   -3.973840791095728E1   2.477450590558633E1  -6.594266347070720   6.625242280498827E1  -6.589225960498730   3.689843384302858E1  -3.658169411664835E1   8.011910337662279E1  
 1.430440097799511E11   -3.016567222936005E1   3.892508693871439E1  -6.606573613957193   4.134850205602780E1  -6.592519911681009   1.182637417649161E1  -2.966921942977146E1   9.658980513011558E1  
 1.430562347188264E11   -2.584169709990213E1   2.589886431899052E1  -6.625686001740166   1.657510351158684E1  -6.610464424278076  -1.259644348028610E1  -2.546820055988622E1   8.452115813395838E1  
 1.430684596577017E11   -2.383358568505193E1   8.190990479087787  -6.667420753056070  -7.857842015838530  -6.640345846241995  -3.754682849618035E1  -2.290685850405265E1   6.739395877313565E1  
 1.430806845965770E11   -2.342709023257029E1  -9.995551608506663  -6.718461188638390  -3.215984019227678E1  -6.689358094415278  -6.192856242030705E1  -2.155330511918885E1   4.593693635256860E1  
 1.430929095354523E11   -2.444293594564919E1  -2.485995271486550E1  -6.724163023158225  -5.652239406682634E1  -6.710230735319073  -8.605637721698206E1  -2.180293044100528E1   2.167719880381643E1  
 1.431051344743276E11   -2.662952099492005E1  -3.295937478775729E1  -6.666796144639376  -8.055925947089004E1  -6.640167157447317  -1.101443592998073E2  -2.419814227437833E1   1.060821421745922  
 1.431173594132029E11   -2.983498513920901E1  -2.680393845605934E1  -6.606917684979346  -1.055078697484233E2  -6.585895416891494  -1.352473835434993E2  -2.886347777981645E1  -9.426420320594172  
 1.431295843520783E11   -3.014592975142034E1   4.602047014368710  -6.582687281696153  -1.302292783440789E2  -6.585264731983678  -1.598995411352764E2  -3.576008077249581E1   3.154844136649739E1  
 1.431418092909536E11   -2.626039762139267E1   1.749026491753372E1  -6.603795208935774  -1.551866394754467E2  -6.594000325373914   1.751573143294040E2  -2.864852459691057E1   7.468120096820002E1  
 1.431540342298289E11   -2.307661099858813E1   1.083747033199100E1  -6.629785472159925  -1.795522383035151E2  -6.624346358380332   1.501875643681054E2  -2.348851218383005E1   6.639395032632396E1  
 1.431662591687042E11   -2.118450016342131E1  -2.660771740691899  -6.685199691368632   1.559648395065962E2  -6.664940067555349   1.257024613741511E2  -2.057863126462427E1   4.943530517339283E1  
 1.431784841075795E11   -2.055776712084288E1  -1.708604840591751E1  -6.712781976980459   1.317053743028977E2  -6.699440811723596   1.016279613462460E2  -1.912210934154521E1   2.845971098308123E1  
 1.431907090464548E11   -2.059640919687346E1  -2.992549408865492E1  -6.672126416275264   1.073963530110088E2  -6.662288837064556   7.748153899670623E1  -1.908707270551678E1   6.916414692999097  
 1.432029339853301E11   -2.129917609443148E1  -4.088915230673680E1  -6.606982376591675   8.308680228864600E1  -6.626158086807686   5.287682297365173E1  -2.018262167717086E1  -1.232047869644440E1  
 1.432151589242054E11   -2.261556942709321E1  -4.659999514670031E1  -6.564301463725782   5.828086368795545E1  -6.570476487132233   2.791030305212811E1  -2.256577516315188E1  -2.842820235703601E1  
 1.432273838630807E11   -2.378727031880601E1  -4.439402585573015E1  -6.560946307908077   3.333158203395917E1  -6.563255158474598   2.780770988079419  -2.697249765368546E1  -3.695632865039646E1  
 1.432396088019560E11   -2.364290268492329E1  -3.811962283564486E1  -6.573938920187399   8.630697624320268  -6.581093569518781  -2.204118164815778E1  -3.340844935200330E1  -3.692094203568581  
 1.432518337408313E11   -2.230014959584899E1  -3.809843446574160E1  -6.618825910803696  -1.630855740387100E1  -6.614954130723587  -4.674068001225732E1  -2.782987180129394E1   4.054838493838288E1  
 1.432640586797066E11   -2.121890123674535E1  -4.622342541615343E1  -6.679211780638607  -4.048062259705773E1  -6.688388765410918  -7.112319845856423E1  -2.313467023841572E1   3.184121709760736E1  
 1.432762836185819E11   -2.087611769236094E1  -5.782551100559965E1  -6.680746483534954  -6.441041285102325E1  -6.691944808531671  -9.554762889043494E1  -2.150765592856817E1   1.615061885443656E1  
 1.432885085574572E11   -2.123780039634847E1  -7.081592188099297E1  -6.628518600847884  -8.892134268278234E1  -6.625655249320396  -1.197651851854171E2  -2.119209883755985E1   4.307023444048928  
 1.433007334963325E11   -2.255818344575265E1  -8.448360840491934E1  -6.606467877846287  -1.136866262103361E2  -6.608457329747927  -1.445920858269118E2  -2.148243297116048E1  -4.504731021276192  
 1.433129584352078E11   -2.523933015674880E1  -9.410503553688599E1  -6.589748752191404  -1.383983367002793E2  -6.596993855237161  -1.692161722309139E2  -2.222305313334505E1  -9.193932616068155  
 1.433251833740831E11   -2.948160789241684E1  -8.908230142717811E1  -6.602911938198449  -1.631190485641920E2  -6.623121176416102   1.656442489297595E2  -2.287263395753281E1  -7.181415705749272  
 1.433374083129584E11   -3.116101921760566E1  -5.359324111385537E1  -6.660772199044594   1.721695252667836E2  -6.663243042388305   1.408016110418280E2  -2.235857155779365E1  -1.314105937529554  
 1.433496332518337E11   -2.777840535336238E1  -3.750540279152838E1  -6.734706330500761   1.477369443125997E2  -6.740793229778906   1.166074996366371E2  -2.038958143842121E1  -2.320593027340242  
 1.433618581907091E11   -2.517631634840164E1  -4.078718632788063E1  -6.712211660805023   1.240797682006341E2  -6.734386543906184   9.254318955600172E1  -1.904026977318243E1  -1.430104613071038E1  
 1.433740831295844E11   -2.371092188505490E1  -5.116264256172683E1  -6.666832346184632   9.957366518782922E1  -6.669867429788587   6.834963917307879E1  -1.898008113358598E1  -2.827675944094481E1  
 1.433863080684597E11   -2.351675713974022E1  -6.379792962278184E1  -6.614926214829498   7.493842051469623E1  -6.621739466912312   4.386678252367786E1  -1.975709309050478E1  -3.992361764462552E1  
 1.433985330073350E11   -2.464260208676767E1  -7.556421065675163E1  -6.590382660729512   5.003793112660209E1  -6.577217688274581   1.911794336243442E1  -2.121523519064657E1  -4.916786552858661E1  
 1.434107579462103E11   -2.717076419564802E1  -8.029288373600259E1  -6.567654065458639   2.558448937281207E1  -6.581606613510534  -5.665676920929572  -2.348715870364702E1  -5.043857386943522E1  
 1.434229828850856E11   -3.019381337094707E1  -6.399298207973092E1  -6.580356203472766   3.748564678221951E-1  -6.585595731710809  -3.059613978398775E1  -2.555171484410653E1  -3.606906758054227E1  
 1.434352078239609E11   -2.886811817776576E1  -3.544115107902833E1  -6.643806871924146  -2.407561026449481E1  -6.653376756535516  -5.533890619227188E1  -2.367307657788022E1  -1.581888457193174E1  
 1.434474327628362E11   -2.555978495661928E1  -2.892820882825426E1  -6.687387775875119  -4.789230738214576E1  -6.695344484416760  -7.981837860082163E1  -2.039356370121923E1  -1.839620231138477E1  
 1.434596577017115E11   -2.285136069531759E1  -3.342784256198186E1  -6.666465812026235  -7.244053533439288E1  -6.666627165630750  -1.036936576816933E2  -1.857251455198381E1  -3.235699231649237E1  
 1.434718826405868E11   -2.117073773851461E1  -4.400204512472453E1  -6.636065519413287  -9.708401657656329E1  -6.653782618013784  -1.281730340825210E2  -1.786920603145578E1  -4.760031526009260E1  
 1.434841075794621E11   -2.032214171382748E1  -5.531945169878240E1  -6.610779870330735  -1.213931444241988E2  -6.620795427502479  -1.530256556728206E2  -1.794469702309208E1  -6.419123683031199E1  
 1.434963325183374E11   -2.008378085435761E1  -6.610946763348431E1  -6.599629856827812  -1.457611607962803E2  -6.601698363768234  -1.777511241258947E2  -1.873853285917343E1  -8.129805551262862E1  
 1.435085574572127E11   -2.026028859897610E1  -7.453430981160024E1  -6.594640781710137  -1.706162955413971E2  -6.594617501331801   1.574741411441200E2  -2.054484742083297E1  -9.842059995502703E1  
 1.435207823960880E11   -2.049738168420940E1  -8.107663836886353E1  -6.605905507651959   1.644576130058809E2  -6.612257034272171   1.326629853243509E2  -2.400849448357778E1  -1.134029950992678E2  
 1.435330073349633E11   -2.069066357900950E1  -8.768702027183028E1  -6.635525917403774   1.401732491693147E2  -6.625365718842449   1.084228982328414E2  -2.973057415733809E1  -1.130927856387594E2  
 1.435452322738386E11   -2.103487748048459E1  -9.363800095758818E1  -6.636285754670615   1.153937836818182E2  -6.627738465035449   8.421124005783969E1  -3.311619039166075E1  -7.683691034772143E1  
 1.435574572127139E11   -2.150214029781575E1  -1.001567451169124E2  -6.598309834850145   9.135588485677064E1  -6.600229422222032   5.985092415520131E1  -3.099122235412617E1  -4.911036922415149E1  
 1.435696821515892E11   -2.229850416605698E1  -1.066042053123994E2  -6.575975506394014   6.654605055487113E1  -6.584277564054035   3.493664217313109E1  -2.832878533790544E1  -4.602453455425329E1  
 1.435819070904645E11   -2.371174621243118E1  -1.109625786565873E2  -6.576435004681114   4.148939637158362E1  -6.548288003813825   1.034393957778295E1  -2.726659385054649E1  -5.463310426478848E1  
 1.435941320293398E11   -2.541270545429252E1  -1.093728440308019E2  -6.573358261308107   1.658262280632441E1  -6.579313214989250  -1.433076647325724E1  -2.802487729567779E1  -6.388182536036110E1  
 1.436063569682152E11   -2.647333822995547E1  -9.798330869599688E1  -6.620705448048705  -7.986441310638853  -6.623650568434260  -3.926917881795443E1  -3.102281781917508E1  -5.949523581581089E1  
 1.436185819070905E11   -2.561838975376583E1  -8.843391253780641E1  -6.695733846018259  -3.261129166184107E1  -6.670090441463421  -6.340759302249406E1  -3.088514140103773E1  -2.931503094068025E1  
 1.436308068459658E11   -2.437025351498929E1  -8.496628388047935E1  -6.673717621465297  -5.657950218227074E1  -6.668673625807234  -8.713699601501683E1  -2.741863519843950E1  -2.453381352590848E1  
 1.436430317848411E11   -2.297744799365064E1  -8.826982641624623E1  -6.625387758191628  -8.127459597652945E1  -6.620715026391532  -1.119089083500074E2  -2.556600044110705E1  -3.062122067768737E1  
 1.436552567237164E11   -2.218246440257743E1  -9.554330570949342E1  -6.596266361396437  -1.060665581487033E2  -6.577547008028478  -1.363185455201216E2  -2.435456433928729E1  -3.849090508980060E1  
 1.436674816625917E11   -2.224464734623145E1  -1.045258955769330E2  -6.575624866097156  -1.304212340626941E2  -6.572101759803662  -1.613326899111702E2  -2.382548119985366E1  -5.053212656161387E1  
 1.436797066014670E11   -2.305661092523594E1  -1.095556363698671E2  -6.566810597098223  -1.551815536894413E2  -6.548058812899000   1.738239965030648E2  -2.423261258355167E1  -6.485940840495238E1  
 1.436919315403423E11   -2.396039193313796E1  -1.074419186267911E2  -6.564784744847792  -1.799815687932375E2  -6.570340447511565   1.493833341011388E2  -2.632111984658823E1  -7.986837930885363E1  
 1.437041564792176E11   -2.384462278642966E1  -1.013885075167529E2  -6.617916663143188   1.550685306574559E2  -6.612180845623804   1.247350331095376E2  -3.152763073868950E1  -8.325226588773641E1  
 1.437163814180929E11   -2.254262941853783E1  -9.794736911823648E1  -6.624017181858927   1.305497020937743E2  -6.636434827403887   1.006672102107256E2  -3.618007600545029E1  -3.540112500291865E1  
 1.437286063569682E11   -2.077206750719486E1  -1.014746027005544E2  -6.594614430612909   1.060803785888323E2  -6.615308208138840   7.579544390517809E1  -3.102826438262570E1   3.438789489430661  
 1.437408312958435E11   -1.942818773119749E1  -1.119057689561009E2  -6.623216345427741   8.154009047575036E1  -6.598474805648085   5.161141844466880E1  -2.613779074602662E1   4.320952235979483  
 1.437530562347188E11   -1.878515259990968E1  -1.265907508337395E2  -6.616349981408964   5.700741640781320E1  -6.604456132307823   2.689908904211179E1  -2.303119269374070E1  -6.272418359026675  
 1.437652811735941E11   -1.898426947919879E1  -1.425090640973463E2  -6.619799850534161   3.267952773025171E1  -6.613912905959432   2.526345826618943  -2.132947093138246E1  -1.958333815813641E1  
 1.437775061124694E11   -2.015608701090412E1  -1.579450087036935E2  -6.629216984676746   7.897266936361127  -6.621377780013851  -2.187038617792064E1  -2.056710925924594E1  -3.377651383467647E1  
 1.437897310513447E11   -2.229968716902851E1  -1.709453718419579E2  -6.639321268391037  -1.702652663859923E1  -6.638456837521202  -4.647503351864185E1  -2.071599837507441E1  -4.594636066299764E1  
 1.438019559902200E11   -2.570162999801805E1  -1.770349403745944E2  -6.636331576131753  -4.093138200283652E1  -6.629986282863574  -7.086388795493701E1  -2.123394490215970E1  -5.562974893511159E1  
 1.438141809290953E11   -2.974877382916712E1  -1.597788822078039E2  -6.590227345889447  -6.568660627290714E1  -6.596869444267758  -9.513540410652961E1  -2.242571579454402E1  -6.430555335816193E1  
 1.438264058679706E11   -2.807920087252965E1  -1.298024505902211E2  -6.560093293286532  -9.042880846696774E1  -6.570566613553571  -1.199520435065160E2  -2.467523002827131E1  -6.615641414952513E1  
 1.438386308068460E11   -2.458011864717088E1  -1.309325930545873E2  -6.555460613607110  -1.149678218228798E2  -6.559529635561646  -1.446821035180788E2  -2.649352598534266E1  -5.284538047630421E1  
 1.438508557457213E11   -2.279868521103494E1  -1.452800791023391E2  -6.569826094939091  -1.400152746299178E2  -6.583567530999876  -1.693898982295795E2  -2.544559915864777E1  -3.634429084489070E1  
 1.438630806845966E11   -2.242793459588564E1  -1.644396730094536E2  -6.613380149686843  -1.647030282374353E2  -6.608876923488890   1.656302613569431E2  -2.331986940687799E1  -3.133976676199297E1  
 1.438753056234719E11   -2.319011695437668E1   1.753678012248853E2  -6.676348468810124   1.711684679807466E2  -6.675779395138569   1.413381339129520E2  -2.148302897997109E1  -3.382114080583993E1  
 1.438875305623472E11   -2.534875612951560E1   1.507151621366342E2  -6.683386726719122   1.469803680040643E2  -6.715868931546158   1.171364198220145E2  -1.989264177792972E1  -4.131465431232769E1  
 1.438997555012225E11   -3.010100316887441E1   1.178029834282192E2  -6.645378607132990   1.229572483257334E2  -6.655435261910480   9.278836813586138E1  -1.919175710175053E1  -5.271749025056230E1  
 1.439119804400978E11   -3.818406836525001E1   3.901337636796426E1  -6.592607678763289   9.835049750116839E1  -6.608857993562842   6.804563019623741E1  -1.930546881354993E1  -6.325408183285856E1  
 1.439242053789731E11   -3.205856286829317E1  -5.848872871370328E1  -6.545902887495105   7.361926431230286E1  -6.576789247144591   4.373911187757537E1  -2.005331246559139E1  -7.161443224684530E1  
 1.439364303178484E11   -2.758984479170171E1  -9.504399567631198E1  -6.515386496963570   4.920943295103081E1  -6.539839321063782   1.900649802760677E1  -2.115992174318075E1  -7.562040105842944E1  
 1.439486552567237E11   -2.597833415826799E1  -1.230357567700728E2  -6.499437689769176   2.456319736578479E1  -6.537562083857853  -6.053407520368340  -2.218491010551874E1  -7.419768622681012E1  
 1.439608801955990E11   -2.641823753627844E1  -1.477921847956631E2  -6.503981311171716  -4.144965977024970E-1  -6.547319705082020  -3.096315476871265E1  -2.260759576684289E1  -6.854737722157428E1  
 1.439731051344743E11   -2.900926944703257E1  -1.726851408527899E2  -6.537377842567102  -2.516261412113929E1  -6.535828125354116  -5.570254356959236E1  -2.202888979301147E1  -6.296137739193288E1  
 1.439853300733496E11   -3.663410160309206E1   1.549856724204807E2  -6.524179975626906  -4.944745909216204E1  -6.545187620425367  -8.004101900936507E1  -2.086705219886447E1  -6.237787967764916E1  
 1.439975550122250E11   -3.717682433350662E1  -1.578641886473833E1  -6.529823047103890  -7.370175503447327E1  -6.542380189156454  -1.047949570451479E2  -1.997537657300886E1  -6.580226877919665E1  
 1.440097799511003E11   -2.764489087740182E1  -5.197516335611837E1  -6.513784154879878  -9.890840031459017E1  -6.542098307473309  -1.297880910241982E2  -1.936373443185331E1  -7.181018556560515E1  
 1.440220048899756E11   -2.363894274278169E1  -7.578506313199155E1  -6.505973705333881  -1.231016138244194E2  -6.532251678132190  -1.542481254334079E2  -1.905293439010139E1  -7.830639314379432E1  
 1.440342298288509E11   -2.170149613854326E1  -9.748775330027121E1  -6.529327033466863  -1.478942904440367E2  -6.547216762348741  -1.788078814183644E2  -1.903774160100140E1  -8.523712562151192E1  
 1.440464547677262E11   -2.096263115250546E1  -1.175767548125098E2  -6.543846627107788  -1.724362076682798E2  -6.568785588958885   1.564852830727029E2  -1.938985094395766E1  -9.150740170446190E1  
 1.440586797066015E11   -2.111437043352425E1  -1.362271761591017E2  -6.608599375193927   1.629537129308695E2  -6.609328465716816   1.318233148689797E2  -1.988000801193962E1  -9.468082911905280E1  
 1.440709046454768E11   -2.259284663772640E1  -1.525449814868149E2  -6.586986299182479   1.391899009819039E2  -6.589425783564555   1.077084495837014E2  -2.007527700007791E1  -9.802449302248078E1  
 1.440831295843521E11   -2.546828291741699E1  -1.581898756874403E2  -6.537427713365628   1.147028576323660E2  -6.550335865689077   8.294527242111778E1  -2.061213103854153E1  -1.023174269387422E2  
 1.440953545232274E11   -2.779755728744962E1  -1.425460198913265E2  -6.519262342618866   8.977839624063809E1  -6.538730885188843   5.824162290970154E1  -2.129061036888916E1  -1.040793945257422E2  
 1.441075794621027E11   -2.608874446525004E1  -1.230740229948168E2  -6.497554658608030   6.513058877307402E1  -6.517966726933194   3.362866206483903E1  -2.186658221124289E1  -1.024681208351012E2  
 1.441198044009780E11   -2.314459411482768E1  -1.242851465699725E2  -6.508651924926107   4.033598788510487E1  -6.525354645337400   8.576231541873209  -2.183676035119147E1  -1.012995363041188E2  
 1.441320293398533E11   -2.124025106872721E1  -1.352551405110989E2  -6.540416181021239   1.597298328481519E1  -6.557895164011964  -1.624953744204147E1  -2.161791412622950E1  -1.012712874591870E2  
 1.441442542787286E11   -2.024892852771006E1  -1.494552731746382E2  -6.595556146269456  -8.480128615052566  -6.624651554873010  -4.037704425369218E1  -2.141213986614849E1  -1.031566170581757E2  
 1.441564792176039E11   -2.035261542146750E1  -1.657555558982219E2  -6.609745598100212  -3.269121109980852E1  -6.630724061098379  -6.445411642012491E1  -2.096787918892910E1  -1.058964408111824E2  
 1.441687041564792E11   -2.162354400956286E1   1.799320005724111E2  -6.558139149393315  -5.659164827879843E1  -6.587438100949708  -8.908787840864375E1  -2.064173254544982E1  -1.142737069266869E2  
 1.441809290953545E11   -2.396117368984861E1   1.722817603862068E2  -6.496589146709311  -8.155921295186255E1  -6.525118202623737  -1.134733797164651E2  -2.136742621152943E1  -1.245743980762116E2  
 1.441931540342298E11   -2.643839369320866E1   1.797114056147830E2  -6.460138010730968  -1.063453077067277E2  -6.489810160599418  -1.383091988923935E2  -2.304972718239111E1  -1.320870824235973E2  
 1.442053789731051E11   -2.625671102713120E1  -1.645439381692630E2  -6.433988796824680  -1.309571276967113E2  -6.477873853508065  -1.632700430101508E2  -2.544904236908901E1  -1.322251516471942E2  
 1.442176039119804E11   -2.428804387060965E1  -1.602638515628274E2  -6.443531659932688  -1.555042106057104E2  -6.492296331147000   1.716700931408723E2  -2.761210025543128E1  -1.185839036710374E2  
 1.442298288508557E11   -2.262964954511834E1  -1.672368497409293E2  -6.494058981093646   1.796833469599913E2  -6.526669494246459   1.470070422557660E2  -2.736147017477633E1  -9.996921130436692E1  
 1.442420537897311E11   -2.192720315058348E1   1.797703258409697E2  -6.536340644881396   1.555784153111437E2  -6.566967281330150   1.223561917886200E2  -2.516218771971081E1  -9.061400503383288E1  
 1.442542787286064E11   -2.279071871677446E1   1.651613607338315E2  -6.515650923504411   1.312190043521525E2  -6.542569320058696   9.834961370241888E1  -2.331189484481683E1  -9.483918517900953E1  
 1.442665036674817E11   -2.533543866477368E1   1.568502099464697E2  -6.472188582514927   1.064781732999155E2  -6.500231675898050   7.379733700287071E1  -2.277368614731443E1  -1.049751978600716E2  
 1.442787286063570E11   -2.870358606901585E1   1.693501199206757E2  -6.441772603057692   8.188675455012303E1  -6.473174652260959   4.889985321732180E1  -2.360234200794609E1  -1.128435996808704E2  
 1.442909535452323E11   -2.745950561656937E1  -1.593140694166958E2  -6.416631585780491   5.681514645570573E1  -6.450011483822713   2.427951944652396E1  -2.531330972737043E1  -1.111844495044359E2  
 1.443031784841076E11   -2.340277703286181E1  -1.551100556733344E2  -6.459107915792138   3.210161897896570E1  -6.468400901989067  -8.589861770034207E-1  -2.590615140962512E1  -9.563305733190242E1  
 1.443154034229829E11   -2.049936413571750E1  -1.657454922681785E2  -6.512598576887065   6.851282871644607  -6.524073337183766  -2.551421810672906E1  -2.388321556807281E1  -8.357446211160421E1  
 1.443276283618582E11   -1.868106745671367E1   1.772722062138691E2  -6.593883458355741  -1.747316706796660E1  -6.614964447055224  -4.992048114558033E1  -2.121346931179978E1  -8.317558575600550E1  
 1.443398533007335E11   -1.813080204705651E1   1.577597712631391E2  -6.613143606046938  -4.155397952212735E1  -6.625840189179051  -7.385664167220159E1  -1.891181983805141E1  -9.364632875739467E1  
 1.443520782396088E11   -1.858165075778132E1   1.387260584617523E2  -6.601198172996706  -6.548141668010698E1  -6.615318909833131  -9.814924099826911E1  -1.767986608863682E1  -1.089776577585471E2  
 1.443643031784841E11   -1.991979415350313E1   1.214223540972391E2  -6.568758521657252  -9.000468629101401E1  -6.587720244765729  -1.226091489469736E2  -1.757326913529049E1  -1.264724266210937E2  
 1.443765281173594E11   -2.221260682115997E1   1.067649233340951E2  -6.530615443330865  -1.146718754752663E2  -6.559782541676715  -1.471407778660928E2  -1.828727725157839E1  -1.436773074110681E2  
 1.443887530562347E11   -2.582405485768612E1   9.972322571294572E1  -6.493470499426391  -1.391447366037189E2  -6.510195915347406  -1.716500051968911E2  -2.016902296601977E1  -1.595858029114978E2  
 1.444009779951100E11   -2.983559392119853E1   1.160107257861719E2  -6.464002336377804  -1.641985950934932E2  -6.509601732689598   1.638914257713584E2  -2.379872756828417E1  -1.716496410309103E2  
 1.444132029339853E11   -2.813024932070909E1   1.454857465400292E2  -6.488820975050758   1.710566094533712E2  -6.515555712846435   1.390076741091960E2  -3.050733768898536E1  -1.602929515741046E2  
 1.444254278728606E11   -2.490404087868086E1   1.400049665361854E2  -6.497035363028822   1.467742637943179E2  -6.532959133169933   1.143392798032469E2  -2.888953656968766E1  -9.953638158781979E1  
 1.444376528117359E11   -2.385420869869593E1   1.235627868528541E2  -6.476159827189800   1.220207119486863E2  -6.511499593425256   8.978429583101826E1  -2.354046194920263E1  -9.796645878368793E1  
 1.444498777506112E11   -2.426862827595360E1   1.052741367608348E2  -6.479533108434102   9.761636817692251E1  -6.512039221703348   6.555753183404141E1  -2.085770698346699E1  -1.111339760886434E2  
 1.444621026894865E11   -2.624101769007708E1   8.504882505877873E1  -6.469269621998607   7.302157931484774E1  -6.486717536957571   4.100909482248906E1  -1.989647945722441E1  -1.278777419531400E2  
 1.444743276283619E11   -3.040857828391812E1   6.490817141829109E1  -6.450092038456931   4.832647593867026E1  -6.479622090815306   1.631280765433088E1  -2.021575280440988E1  -1.439694281278255E2  
 1.444865525672372E11   -4.229004665281386E1   4.354641462951089E1  -6.443625627180848   2.373875744673244E1  -6.473424459337871  -8.358716986487991  -2.170215570489407E1  -1.574878456743449E2  
 1.444987775061125E11   -3.575472616260763E1  -1.548515595653572E2  -6.460096167601232  -1.113879853674040  -6.479181285745987  -3.276418233527145E1  -2.465938014895604E1  -1.628882012781983E2  
 1.445110024449878E11   -2.892244361634315E1   1.778464927762636E2  -6.428423848347379  -2.558664046229666E1  -6.461414007926537  -5.720381584397898E1  -2.739309311052491E1  -1.473449948297330E2  
 1.445232273838631E11   -2.664588561678720E1   1.524863353010338E2  -6.414298174452618  -5.020396710500738E1  -6.430220808338484  -8.195502339393602E1  -2.602749517251863E1  -1.265752737180555E2  
 1.445354523227384E11   -2.664640228067154E1   1.305242969215385E2  -6.422600717464568  -7.510026011154068E1  -6.433452415329957  -1.066794339076454E2  -2.349811450962277E1  -1.248575700156295E2  
 1.445476772616137E11   -2.852392031603286E1   1.098140426527675E2  -6.415254618999887  -9.996642064667537E1  -6.420563830028466  -1.310481579981772E2  -2.199064665503555E1  -1.336606030802655E2  
 1.445599022004890E11   -3.385151330385222E1   9.180325160548405E1  -6.417975319495824  -1.247414867268797E2  -6.436491886628896  -1.558423245949016E2  -2.159580381501171E1  -1.450744531790681E2  
 1.445721271393643E11   -4.763589934589884E1  -1.445674730628328E2  -6.423834563894523  -1.494637337775180E2  -6.468946100810564   1.793604634882491E2  -2.226105453789707E1  -1.554974192244151E2  
 1.445843520782396E11   -2.965907842128266E1  -1.403983550450942E2  -6.487513697222167  -1.741875482706318E2  -6.513583857995781   1.550480245143098E2  -2.399799351877101E1  -1.590574616013982E2  
 1.445965770171149E11   -2.421581022875992E1  -1.648697288917280E2  -6.509053905896829   1.614014976742031E2  -6.534108285777137   1.306732132499063E2  -2.486754186433697E1  -1.478582391072361E2  
 1.446088019559902E11   -2.188029652339429E1   1.722370097523565E2  -6.471864917075080   1.368278092682733E2  -6.501599036861403   1.062909642580489E2  -2.288398850888839E1  -1.401715543881796E2  
 1.446210268948655E11   -2.078761207916037E1   1.524773676724777E2  -6.474175837009118   1.121473206635326E2  -6.492175660906446   8.166632508288701E1  -2.067235407924084E1  -1.477507362580834E2  
 1.446332518337408E11   -2.054920569195423E1   1.339430913659655E2  -6.463167525657897   8.743556367006458E1  -6.476817432562567   5.714746515761688E1  -1.922665671992001E1  -1.624836994618410E2  
 1.446454767726162E11   -2.084923554909927E1   1.177727315978584E2  -6.478722483226203   6.302035924688623E1  -6.513916555737445   3.227648572444272E1  -1.874463102587552E1   1.782002109924991E2  
 1.446577017114915E11   -2.184407299350608E1   1.033927433792116E2  -6.494824084116006   3.816830699565858E1  -6.523976439816511   7.773931524156949  -1.911157523199751E1   1.558487102613348E2  
 1.446699266503668E11   -2.337348250669586E1   9.349117038562868E1  -6.540667367576968   1.346671369902601E1  -6.573098752544030  -1.675179098667232E1  -2.035806567861845E1   1.298284412482257E2  
 1.446821515892421E11   -2.459652589120861E1   9.150169848820983E1  -6.579396858115895  -1.074453634182265E1  -6.607916746162133  -4.084124146378389E1  -2.279505819820667E1   9.700168182549281E1  
 1.446943765281174E11   -2.460893345809891E1   8.584411711590435E1  -6.561782169849577  -3.498812964526026E1  -6.575583858542914  -6.532950390953010E1  -2.640115557298968E1   5.256672993629712E1  
 1.447066014669927E11   -2.508131115595503E1   7.287688174411220E1  -6.528715293580391  -5.965956487395902E1  -6.538683207756045  -8.993663333649700E1  -2.840909881891031E1  -1.224580212383076E1  
 1.447188264058680E11   -2.633336373344417E1   5.651527737477331E1  -6.500725649174399  -8.415273745361711E1  -6.526347456314277  -1.142583437530146E2  -2.651065144727047E1  -6.690558414477530E1  
 1.447310513447433E11   -2.902302571220919E1   3.361259100723304E1  -6.475378338535488  -1.093744325120637E2  -6.506334679496100  -1.391220066139809E2  -2.475002573660775E1  -1.034978116453327E2  
 1.447432762836186E11   -3.360907704458139E1  -6.674521211924148  -6.463916565047644  -1.338859087241261E2  -6.487242040148574  -1.638047872692148E2  -2.438385780221674E1  -1.283600323378107E2  
 1.447555012224939E11   -3.438717288719402E1  -9.284335329499184E1  -6.479394944036095  -1.586747779116803E2  -6.507815502544835   1.712390948927046E2  -2.553060489070144E1  -1.460883171900910E2  
 1.447677261613692E11   -2.815401230929059E1  -1.498002175828077E2  -6.537933914157952   1.766055087279430E2  -6.551302524506740   1.463978489235644E2  -2.800917541040114E1  -1.472154521482741E2  
 1.447799511002445E11   -2.422805908405750E1   1.768871595971129E2  -6.567473241737742   1.523558157993643E2  -6.572469711786449   1.221293415652046E2  -2.777671482099790E1  -1.260311606130456E2  
 1.447921760391198E11   -2.239631239354263E1   1.510166966972022E2  -6.571203293914565   1.280925436951802E2  -6.591933683270408   9.751905318037642E1  -2.427787156601131E1  -1.233782507741722E2  
 1.448044009779951E11   -2.160217569790554E1   1.280730952101764E2  -6.597056641898130   1.033760760842637E2  -6.616486543060491   7.303262886810769E1  -2.160137101148103E1  -1.358358902209911E2  
 1.448166259168704E11   -2.177568624349323E1   1.074500265327365E2  -6.602752655488508   7.873123208772030E1  -6.622414584322990   4.865601744986611E1  -2.015829424179711E1  -1.534327713112973E2  
 1.448288508557457E11   -2.298629490276744E1   8.730204658686554E1  -6.623476033552681   5.452279095281987E1  -6.627285757395858   2.404961626349032E1  -1.979208047180323E1  -1.737100342650373E2  
 1.448410757946210E11   -2.559870271022691E1   6.789613584319707E1  -6.653715932794048   2.986651617939341E1  -6.661752880154930  -6.120272915226576E-1  -2.068030743555113E1   1.648807580489178E2  
 1.448533007334963E11   -3.271366937864333E1   5.471227321258537E1  -6.679658248971689   5.925746192302693  -6.691145865507431  -2.486960705153519E1  -2.330847193687164E1   1.435819081742347E2  
 1.448655256723716E11   -3.584092687123560E1   1.511556289292418E2  -6.636461496216577  -1.820149820791996E1  -6.644732699641111  -4.914441842981800E1  -2.940296086305793E1   1.346619998882489E2  
 1.448777506112470E11   -2.715438156398623E1   1.519318283726348E2  -6.579398026461136  -4.297728777498816E1  -6.590796697672386  -7.331046003521225E1  -3.419649929530493E1  -1.583909976187700E2  
 1.448899755501223E11   -2.368896885960211E1   1.364556680143151E2  -6.554189133509042  -6.770489253120672E1  -6.560916720119437  -9.823756145564252E1  -2.601143163562260E1  -1.442461290107516E2  
 1.449022004889976E11   -2.204527644026938E1   1.203372303300719E2  -6.563534420449447  -9.220940124919662E1  -6.558035672101923  -1.232507166234841E2  -2.210019091229823E1  -1.609206462651559E2  
 1.449144254278729E11   -2.148456426334250E1   1.040232329532246E2  -6.581894115461904  -1.169327220734872E2  -6.575621855582522  -1.482629963509609E2  -2.026436592073590E1   1.765061582058658E2  
 1.449266503667482E11   -2.195461832521568E1   8.903960422835553E1  -6.603810965602085  -1.410197733228908E2  -6.599674784594874  -1.732243365222006E2  -1.975001512082503E1   1.505166083631433E2  
 1.449388753056235E11   -2.371933457068396E1   7.986604171647772E1  -6.635698182904016  -1.654700049856129E2  -6.639772116173965   1.625756893349373E2  -2.055728324941701E1   1.213761849010940E2  
 1.449511002444988E11   -2.543561115980658E1   8.611070890454049E1  -6.629231630899072   1.706084896203157E2  -6.620849955334657   1.382839018431060E2  -2.327196430115727E1   8.672509006517004E1  
 1.449633251833741E11   -2.452506468453632E1   9.504004542871088E1  -6.588691270402354   1.461516213452615E2  -6.576430904612395   1.134512146924373E2  -2.808274666426661E1   3.582172539699962E1  
 1.449755501222494E11   -2.275944514326273E1   9.508529655906311E1  -6.559660310452960   1.216383236203139E2  -6.558901371008179   8.869751632190236E1  -2.890982590220773E1  -5.620056119504778E1  
 1.449877750611247E11   -2.110996646996446E1   8.751866090615313E1  -6.557291254185040   9.679404784560796E1  -6.565702076533918   6.366640265218741E1  -2.377108790479841E1  -1.156550885789099E2  
 1.450000000000000E11   -2.013151435820683E1   7.574391672759415E1  -6.588070879405406   7.247015249561795E1  -6.584307812439276   3.915457642620678E1  -2.044781056599793E1  -1.518701123556210E2  
 1.450122249388753E11   -1.968874523196242E1   6.105087196736871E1  -6.619555808387078   4.781580475874599E1  -6.604891788325579   1.456071522765928E1  -1.871363265685333E1   1.777923692306146E2  
 1.450244498777506E11   -1.998993212382585E1   4.534484226788709E1  -6.647391379529363   2.363048075784282E1  -6.639778854382298  -9.773183462581759  -1.809844247089895E1   1.482130906591233E2  
 1.450366748166259E11   -2.125334663399929E1   3.057456261870294E1  -6.651138189858258  -1.338267432690540E-1  -6.649639252046024  -3.392202449686883E1  -1.859421485435609E1   1.190618721329607E2  
 1.450488997555012E11   -2.305405797049394E1   2.148024564984711E1  -6.587794182609330  -2.448625099963134E1  -6.607527920656388  -5.854354844547162E1  -2.021552282406450E1   8.967286008340295E1  
 1.450611246943765E11   -2.494172960638790E1   1.593772515365881E1  -6.514037554155909  -4.911457906966339E1  -6.518645067250612  -8.289690707789269E1  -2.319799946820194E1   5.894596951381100E1  
 1.450733496332518E11   -2.677305575820892E1   1.652704764958172E1  -6.455710454230782  -7.374164297716609E1  -6.474911763179123  -1.076887708707998E2  -2.871524952144142E1   2.070716059022881E1  
 1.450855745721271E11   -2.789568742577702E1   2.034625788553334E1  -6.441745513741962  -9.867495734314545E1  -6.464698649349060  -1.328540021568430E2  -3.691889459171939E1  -7.259468230850243E1  
 1.450977995110024E11   -2.779065099401224E1   2.195585072476635E1  -6.456164702869652  -1.236429482059834E2  -6.466264529095064  -1.577385614943681E2  -3.007960724226095E1  -1.686968514321108E2  
 1.451100244498778E11   -2.746019159837346E1   1.293408048319937E1  -6.543426230258923  -1.481453895262371E2  -6.552022425697673   1.773858040804304E2  -2.636416944992763E1   1.494016033076894E2  
 1.451222493887531E11   -2.917342687210781E1  -8.449765140845397  -6.594054024557495  -1.724880699724218E2  -6.606654959621769   1.531519594413679E2  -2.586869559708235E1   1.141078953886956E2  
 1.451344743276284E11   -3.505793045264764E1  -3.101892316601562E1  -6.530791077648771   1.637446085290164E2  -6.556966621945893   1.294395531417622E2  -2.768506377011449E1   8.338891249549050E1  
 1.451466992665037E11   -5.955789708545854E1   8.080859994628695E1  -6.440799286243256   1.391850740801557E2  -6.471420329804954   1.048523487794870E2  -3.138397080921036E1   4.777607609940157E1  
 1.451589242053790E11   -3.595095295229800E1   1.098655437850186E2  -6.409860781649166   1.143397073165962E2  -6.426151576649850   7.948324261228530E1  -3.905596385867032E1  -2.007748023429039E1  
 1.451711491442543E11   -3.099337992028648E1   9.720235068149015E1  -6.391617544264641   8.937760016005112E1  -6.415431428782271   5.482433671238703E1  -3.392460510764730E1  -1.377960387961005E2  
 1.451833740831296E11   -2.856188760365803E1   8.215093102686269E1  -6.415866828490644   6.418412948002354E1  -6.433419514272126   3.010102012383838E1  -2.794391059341015E1   1.794658582356363E2  
 1.451955990220049E11   -2.782388427362602E1   6.489457056985837E1  -6.470325390923120   3.955624220885837E1  -6.495741821568537   5.376054309303609  -2.490467714370748E1   1.431018400362639E2  
 1.452078239608802E11   -2.948975279681996E1   5.070498654439579E1  -6.536990998235229   1.528232351628737E1  -6.582455851817660  -1.926450118879203E1  -2.386687127712393E1   1.068892023141778E2  
 1.452200488997555E11   -3.246863409113826E1   5.914118308491867E1  -6.520335291533820  -8.896719932740986  -6.545646870899328  -4.274052948591128E1  -2.474859877549684E1   6.907058667633538E1  
 1.452322738386308E11   -3.148502216431185E1   8.036866154106028E1  -6.453487584039582  -3.307226434290871E1  -6.484398840268937  -6.742158323301430E1  -2.665342232575103E1   2.940223741662991E1  
 1.452444987775061E11   -2.890551602621599E1   8.551201130696667E1  -6.401534264081913  -5.802576959822231E1  -6.433170794576554  -9.194855560115470E1  -2.909837175939978E1  -2.292769267105926E1  
 1.452567237163814E11   -2.689500081073507E1   8.100583935868480E1  -6.373368370190840  -8.303447568379430E1  -6.411533714831484  -1.167878863207909E2  -2.937317408183656E1  -8.861388699636328E1  
 1.452689486552567E11   -2.541401204742457E1   7.305594902739374E1  -6.363865499055637  -1.077238919015972E2  -6.414594102979947  -1.414130252374422E2  -2.720873703138639E1  -1.465707893261876E2  
 1.452811735941320E11   -2.474202623578846E1   6.149490946828809E1  -6.396635113439268  -1.328579590895012E2  -6.431295638305233  -1.661173595249131E2  -2.496192978966656E1   1.690102775113045E2  
 1.452933985330073E11   -2.514247015902466E1   4.883382785715404E1  -6.429743241199503  -1.574934060776091E2  -6.469016861315382   1.690936133968737E2  -2.380366445084906E1   1.290422779740222E2  
 1.453056234718826E11   -2.692309720270612E1   4.167315640175510E1  -6.465191856823121   1.781086779932859E2  -6.494851402323348   1.451784558040914E2  -2.407523321480510E1   8.812814298836770E1  
 1.453178484107579E11   -2.847986884757311E1   5.116188287458008E1  -6.421513002256282   1.536509290444066E2  -6.471506542725161   1.209831253754277E2  -2.559079762656205E1   4.461282779587714E1  
 1.453300733496332E11   -2.780727326737125E1   6.414971874551947E1  -6.396027063706553   1.289171995372548E2  -6.427349896130377   9.648268860103273E1  -2.749751775686544E1  -8.921284245554748  
 1.453422982885085E11   -2.582375285711665E1   6.879948801067418E1  -6.377081076141546   1.041693285395476E2  -6.415325093075335   7.153460416583351E1  -2.733246301043171E1  -7.365245525118971E1  
 1.453545232273839E11   -2.364818805381297E1   6.396239546674012E1  -6.400541347454789   7.919881776172628E1  -6.431736201004776   4.686354519690939E1  -2.516574733516637E1  -1.293270284464474E2  
 1.453667481662592E11   -2.215541194021878E1   5.283516455995287E1  -6.424076793476029   5.418481364770803E1  -6.458970328410548   2.220774094444841E1  -2.277578770053468E1  -1.724179734292907E2  
 1.453789731051345E11   -2.153546382246454E1   3.874290815958008E1  -6.488675687368158   2.953562689212072E1  -6.520739838936418  -2.244206818861570  -2.138859391964238E1   1.499422976129516E2  
 1.453911980440098E11   -2.203761297998087E1   2.269022232970070E1  -6.521645426837082   5.329751522409240  -6.571310511175297  -2.624948423640218E1  -2.118063471945195E1   1.147526938997486E2  
 1.454034229828851E11   -2.353621104717151E1   1.129204363975215E1  -6.470814547049916  -1.860146507967855E1  -6.521067344770078  -4.999597985577810E1  -2.226219672535223E1   8.181997478727462E1  
 1.454156479217604E11   -2.570507921331877E1   5.997255314794119  -6.394546515796180  -4.352710628237239E1  -6.431761372895415  -7.463596593326237E1  -2.444186089085409E1   4.804072398243699E1  
 1.454278728606357E11   -2.799306978370066E1   1.238271723768499E1  -6.348708882650522  -6.832323957604653E1  -6.383905432628688  -9.928980117588289E1  -2.828805624891380E1   6.331944911555405  
 1.454400977995110E11   -2.842123874624651E1   2.939994954327129E1  -6.330264631803295  -9.343140251505936E1  -6.365702916939231  -1.241777665256901E2  -3.346827171651969E1  -7.154886090610482E1  
 1.454523227383863E11   -2.619682613117566E1   3.752921462760209E1  -6.352546101868628  -1.185287445692847E2  -6.398455752381384  -1.488308738691096E2  -2.946831635649360E1  -1.578679306899546E2  
 1.454645476772616E11   -2.409120784115770E1   3.084837750613984E1  -6.422975094615129  -1.434179929504878E2  -6.445088990964655  -1.736112826257683E2  -2.523511305939876E1   1.556028775642434E2  
 1.454767726161369E11   -2.337504560597844E1   1.553016147004315E1  -6.488831664259268  -1.677190830705723E2  -6.518073795256417   1.619054698102945E2  -2.342168295736857E1   1.191935691759530E2  
 1.454889975550122E11   -2.417835491804392E1   7.071519066291679E-1  -6.479357600339536   1.682040507290608E2  -6.509620101020291   1.382583639307235E2  -2.349639895647602E1   8.957235445736038E1  
 1.455012224938875E11   -2.600961941238135E1  -1.241267236899297E1  -6.419611816973003   1.438883731970830E2  -6.436986528837875   1.135132035003242E2  -2.487481336792331E1   6.128391461540958E1  
 1.455134474327629E11   -2.955771935926561E1  -2.196583521070888E1  -6.369683465043573   1.189599491518265E2  -6.383434987953469   8.874323697583533E1  -2.854859152466087E1   3.447871510380664E1  
 1.455256723716382E11   -3.694913597207968E1   1.046359254006973  -6.363397534183584   9.415304387530206E1  -6.374801217948495   6.356964736297407E1  -3.902653618278259E1   6.198159702492625  
 1.455378973105135E11   -3.220397479562784E1   6.198309100522680E1  -6.377704230409023   6.884125424887860E1  -6.411400312273992   3.887041106342547E1  -3.418140672546291E1   1.613224299228950E2  
 1.455501222493888E11   -2.663678679202335E1   5.660041830412819E1  -6.474666557257134   4.418975164291100E1  -6.508228036428414   1.376144985206415E1  -2.609202028705811E1   1.337474582844643E2  
 1.455623471882641E11   -2.442648874230129E1   3.962331496543448E1  -6.604477237478872   1.985457910224569E1  -6.621184280232811  -1.049782103374385E1  -2.269212365921005E1   1.031333909242868E2  
 1.455745721271394E11   -2.423224535098252E1   2.586490940208197E1  -6.614731126696293  -3.737926665752089  -6.638778295526989  -3.391100269646564E1  -2.179106696310031E1   7.334032264061634E1  
 1.455867970660147E11   -2.454083226589197E1   1.510022828641705E1  -6.540963362852908  -2.811108381659865E1  -6.566524315936474  -5.817611737754315E1  -2.227322861410015E1   4.655755817408139E1  
 1.455990220048900E11   -2.602444213634650E1   5.105787848626735  -6.466339211134865  -5.255014350932833E1  -6.485310654590650  -8.294774757899448E1  -2.404207327776167E1   1.974220394364898E1  
 1.456112469437653E11   -2.897454264198660E1   6.201502643076863  -6.427215937899235  -7.755366011526574E1  -6.425606268173827  -1.076417164428541E2  -2.808900431877344E1  -1.167300094913919E1  
 1.456234718826406E11   -3.076363896894192E1   3.700134013105610E1  -6.414885272101424  -1.023269816451818E2  -6.422338878549149  -1.332846331688787E2  -3.869557081149321E1  -7.766567172092086E1  
 1.456356968215159E11   -2.665202879760184E1   5.433941650547571E1  -6.464896283666000  -1.271368118779630E2  -6.489233932763481  -1.582802589327511E2  -3.037873357186421E1   1.504200179533544E2  
 1.456479217603912E11   -2.331366071444992E1   4.829201388405281E1  -6.575219305209821  -1.519217507294085E2  -6.577363622854508   1.770630600870762E2  -2.395076315713817E1   1.123006811868099E2  
 1.456601466992665E11   -2.157729004043786E1   3.754477870762143E1  -6.650922159915396  -1.756075609597490E2  -6.666980625744746   1.531760567248496E2  -2.108551796230459E1   8.080378331954697E1  
 1.456723716381418E11   -2.044055213829844E1   2.545108908711799E1  -6.629092629367422   1.604424359622431E2  -6.635723878760156   1.288790130388023E2  -1.989648975868890E1   5.252411570295405E1  
 1.456845965770171E11   -2.006745311911468E1   1.183800430913427E1  -6.561299943760822   1.361357019472884E2  -6.593461725350845   1.044180148473053E2  -1.990368998894725E1   2.528486742294822E1  
 1.456968215158924E11   -2.054267352162572E1  -1.632079127356367E-1  -6.500367001922459   1.119079281111346E2  -6.535138371150610   7.973161862938530E1  -2.082349633016086E1  -3.062568692304814  
 1.457090464547677E11   -2.166536449906072E1  -8.261389953414193  -6.453175453647452   8.704731503686749E1  -6.483605686919833   5.500100290182733E1  -2.301452703166485E1  -3.382243212832716E1  
 1.457212713936430E11   -2.285988065794359E1  -8.970287910239664  -6.449531607963486   6.233265044546968E1  -6.481905314522286   3.009052790916037E1  -2.712163414004771E1  -7.264064972560598E1  
 1.457334963325183E11   -2.304522096904589E1  -6.131457946756566  -6.508069944412814   3.778962280069501E1  -6.519917668325814   5.376930230943155  -3.333147125885316E1  -1.480786612811151E2  
 1.457457212713937E11   -2.277423113279554E1  -6.738239091898817  -6.552929912859695   1.346726793852347E1  -6.589029765609468  -1.882570705398798E1  -3.033998148105155E1   1.175968339957231E2  
 1.457579462102690E11   -2.234966617594494E1  -9.214333133052344  -6.521528924561951  -1.051378710019233E1  -6.551063270485635  -4.323814078618556E1  -2.662894336849272E1   7.586783661192000E1  
 1.457701711491443E11   -2.196558477953079E1  -1.458551673619649E1  -6.473328424966454  -3.512665941392675E1  -6.502136858168047  -6.786241662894659E1  -2.507272798069780E1   4.674965671073971E1  
 1.457823960880196E11   -2.211695749782264E1  -2.319031278196237E1  -6.434513338872881  -5.992973865647461E1  -6.469571245562319  -9.240315309503069E1  -2.495880436205050E1   1.901894334907972E1  
 1.457946210268949E11   -2.317393952737477E1  -3.089046634947808E1  -6.403344646300135  -8.461714129019370E1  -6.434514122811277  -1.173305336001144E2  -2.670387798579317E1  -1.068979722515115E1  
 1.458068459657702E11   -2.490904290582551E1  -3.064101234109131E1  -6.415342033839541  -1.093996400102018E2  -6.442650781889125  -1.424389536780105E2  -3.186498504087276E1  -4.224621004087603E1  
 1.458190709046455E11   -2.561457849107015E1  -2.094110895475854E1  -6.461802948639954  -1.340138723938491E2  -6.502447383214697  -1.674951177692977E2  -4.489394480947983E1  -1.715880741757721E2  
 1.458312958435208E11   -2.497584934471299E1  -1.490401392542307E1  -6.534768917123132  -1.579917033550958E2  -6.564843156844288   1.680267250020363E2  -3.093434104274663E1   9.961741531976897E1  
 1.458435207823961E11   -2.401949071066043E1  -1.272674309853905E1  -6.518357913549715   1.778741114948768E2  -6.555772620356295   1.438027657440323E2  -2.680958300353985E1   7.243039011627120E1  
 1.458557457212714E11   -2.276056170355861E1  -1.642002152337411E1  -6.472474064090073   1.536662661047574E2  -6.512993283003745   1.193215480016528E2  -2.490437684509077E1   4.965408185158006E1  
 1.458679706601467E11   -2.223961673879698E1  -2.486517542625249E1  -6.445515109269111   1.287879778672636E2  -6.468268148090957   9.476082013913081E1  -2.406840590163570E1   2.611247892546823E1  
 1.458801955990220E11   -2.265348754253492E1  -3.403202033984129E1  -6.411288543126966   1.041949712528043E2  -6.440284367990744   6.974407878520108E1  -2.471991148576048E1   1.290943910673689  
 1.458924205378973E11   -2.375382538361685E1  -3.876599745991047E1  -6.403777014723630   7.918523310115511E1  -6.418763774137704   4.522924960810521E1  -2.713304031482919E1  -2.697624291045073E1  
 1.459046454767726E11   -2.467920196211564E1  -3.577705576899090E1  -6.429473654108826   5.400449406695353E1  -6.459514548179420   1.998882656292173E1  -3.326870579172030E1  -7.039691372447555E1  
 1.459168704156479E11   -2.458603936876060E1  -3.032499113987084E1  -6.503114958078839   2.991856259935995E1  -6.544988191609278  -4.642469579576960  -3.644275508018780E1   1.584452563463941E2  
 1.459290953545232E11   -2.370378728567455E1  -2.848219027161524E1  -6.532301097693456   5.997822749988472  -6.567663183530357  -2.876804161353900E1  -2.916238831887328E1   1.034240656520349E2  
 1.459413202933985E11   -2.242311096953809E1  -3.245023539626988E1  -6.490862328695490  -1.855539638398302E1  -6.523149974512602  -5.318871939397949E1  -2.624673598359384E1   7.919088037623394E1  
 1.459535452322738E11   -2.162528150642511E1  -4.376293890153049E1  -6.436976114793820  -4.294819102502910E1  -6.481476179499343  -7.754295629100039E1  -2.484637181709609E1   6.031093281868768E1  
 1.459657701711491E11   -2.189725285153980E1  -5.950485282932328E1  -6.410938185053434  -6.761427867951511E1  -6.443717808443541  -1.022904203269552E2  -2.466284198609647E1   4.474509261455490E1  
 1.459779951100244E11   -2.366183499258469E1  -7.594702691848977E1  -6.407116018904913  -9.280838352808743E1  -6.414144430642987  -1.266893620121448E2  -2.548190184122769E1   3.470830912746575E1  
 1.459902200488998E11   -2.773676002906846E1  -8.937626806796742E1  -6.406188485516981  -1.177461889770265E2  -6.431190093334365  -1.520418839363658E2  -2.727225371813878E1   3.752782015339690E1  
 1.460024449877751E11   -3.708702102575911E1  -7.279128995870407E1  -6.459646146296998  -1.426595527999856E2  -6.506234884444824  -1.765706819185160E2  -2.640157111413900E1   5.362139123917357E1  
 1.460146699266504E11   -3.217702881020293E1   1.342551205518368E1  -6.531503207501832  -1.665882295415119E2  -6.549942147720866   1.590072813896874E2  -2.340314330331156E1   5.425366433775162E1  
 1.460268948655257E11   -2.530088293930595E1   1.010175289184688E1  -6.527771115004075   1.691422597643119E2  -6.544080081443349   1.348092672408423E2  -2.143119942257596E1   4.306308042145574E1  
 1.460391198044010E11   -2.188404046388902E1  -5.168597809103580  -6.488626179818380   1.444629205044363E2  -6.513902397878724   1.104673810499621E2  -2.026339131807907E1   2.968016395167309E1  
 1.460513447432763E11   -2.033117666784634E1  -2.292185234447200E1  -6.478147290389650   1.199198514220689E2  -6.494037295392085   8.609613598650127E1  -1.996149086723356E1   1.436693568244308E1  
 1.460635696821516E11   -2.011304457858382E1  -3.989818345692534E1  -6.434503293975475   9.535881613819673E1  -6.459300798992952   6.148464769694540E1  -2.042061623723816E1  -2.313455611834439  
 1.460757946210269E11   -2.095912930041943E1  -5.393512334041880E1  -6.439234234277754   7.061494937666913E1  -6.448761948641855   3.653272847238998E1  -2.215367234404341E1  -1.702869363305517E1  
 1.460880195599022E11   -2.254571540258915E1  -6.149818644525308E1  -6.445686003142532   4.584048971013656E1  -6.503002099819343   1.202171202875880E1  -2.584647933280528E1  -2.350324149840142E1  
 1.461002444987775E11   -2.459941944052774E1  -5.993859371388838E1  -6.497880272194679   2.134464156998101E1  -6.527492049395706  -1.238956618384503E1  -2.955318611083550E1  -6.983628507309441E-1  
 1.461124694376528E11   -2.512412613676224E1  -4.443934682469655E1  -6.478445488855049  -3.122988442827523  -6.509835732561040  -3.682494143771821E1  -2.764394832762506E1   2.720264868389474E1  
 1.461246943765281E11   -2.279640118357082E1  -3.553735631302126E1  -6.444953672274299  -2.771829415203715E1  -6.495540858767495  -6.127882743692051E1  -2.436924795524393E1   3.095285147586869E1  
 1.461369193154034E11   -2.036412695946929E1  -4.306531647820098E1  -6.449391448889059  -5.250016923019638E1  -6.477488089026355  -8.574675679765767E1  -2.188825402913463E1   2.384387078485487E1  
 1.461491442542787E11   -1.920351807361664E1  -5.658502753368742E1  -6.441262574363187  -7.729687736956520E1  -6.465566181195289  -1.105608767287090E2  -2.060737049449736E1   1.132581802270078E1  
 1.461613691931540E11   -1.909341578817579E1  -7.186585260279765E1  -6.434207820756403  -1.023581456437249E2  -6.480893857027351  -1.348529228739486E2  -2.040049000202843E1  -2.909833763812590  
 1.461735941320293E11   -1.978361623751101E1  -8.614204361704734E1  -6.455544359019472  -1.268415229661520E2  -6.502820941121014  -1.597652461254260E2  -2.121418758279526E1  -1.467560930181182E1  
 1.461858190709046E11   -2.139865739552059E1  -9.830117139672298E1  -6.487675215510925  -1.513123791023699E2  -6.521483296845113   1.760590363560642E2  -2.260311046151912E1  -2.129568521248561E1  
 1.461980440097799E11   -2.420228780891957E1  -1.023074049291331E2  -6.469524449450626  -1.754452260507206E2  -6.486756207174192   1.518856420557711E2  -2.414630489657953E1  -2.363061050514381E1  
 1.462102689486552E11   -2.636243250034831E1  -8.612186005735620E1  -6.400848561710518   1.598747925687675E2  -6.441248432555051   1.271009579247842E2  -2.601952158087881E1  -1.769163722277727E1  
 1.462224938875306E11   -2.448299910754439E1  -7.057093204026987E1  -6.398324415039769   1.348831983318077E2  -6.429664626535860   1.025149216037880E2  -2.635694408366298E1  -1.733601648480142  
 1.462347188264059E11   -2.190224144213406E1  -7.572426412769148E1  -6.400106035892179   1.099588240156221E2  -6.456593117870692   7.773130641005989E1  -2.464841551698293E1   8.659119081408235  
 1.462469437652812E11   -2.045507319767202E1  -8.984014298658286E1  -6.445848084194245   8.492292796536593E1  -6.487133573421514   5.313043604201554E1  -2.280089686069046E1   8.567983185455255  
 1.462591687041565E11   -2.012233248706564E1  -1.076569421699077E2  -6.507756358637591   6.016420576233072E1  -6.551444352486584   2.858318336405699E1  -2.165687310181113E1   3.756252013415516  
 1.462713936430318E11   -2.077897050444681E1  -1.280711445125806E2  -6.576001942085242   3.590631237797005E1  -6.601469669107272   4.260420334076201  -2.066536538420756E1  -4.246977566809911E-1  
 1.462836185819071E11   -2.279114009139975E1  -1.505062522493362E2  -6.555760756821657   1.196405451431422E1  -6.586727453738490  -1.996906747714439E1  -1.988124937710028E1  -8.677468232623003  
 1.462958435207824E11   -2.705339448085766E1  -1.745719348263809E2  -6.521989352869710  -1.227220744217127E1  -6.545972017872627  -4.390165360195986E1  -1.974249053622200E1  -1.806461380101267E1  
 1.463080684596577E11   -3.808669938193998E1   1.554954064087859E2  -6.483505822774579  -3.712375339434087E1  -6.510355858624807  -6.901794123126386E1  -2.007743687277070E1  -2.579864465176057E1  
 1.463202933985330E11   -3.494262708297777E1  -3.240477397644035E1  -6.466229447068195  -6.181335318202863E1  -6.498297259756209  -9.341661918305162E1  -2.083243400853034E1  -3.078890299908668E1  
 1.463325183374083E11   -2.753280854418673E1  -6.186166469353202E1  -6.456921768904249  -8.650941257597775E1  -6.480165956785152  -1.181090072832501E2  -2.152069420564772E1  -3.258674735481690E1  
 1.463447432762836E11   -2.482899276309512E1  -8.653606711233655E1  -6.475751496532906  -1.113693612046100E2  -6.507267839811291  -1.428573571035119E2  -2.213391423371397E1  -3.141626564305147E1  
 1.463569682151589E11   -2.400136152344680E1  -1.126070218961682E2  -6.517574387562134  -1.362671621102593E2  -6.562937930649721  -1.670841449703186E2  -2.229033372695228E1  -2.645638997325137E1  
 1.463691931540342E11   -2.457847692536468E1  -1.429673288421723E2  -6.539761974403835  -1.606112186628488E2  -6.574009069598527   1.688723237189060E2  -2.133148260700432E1  -2.398466791585569E1  
 1.463814180929096E11   -2.679969986491578E1  -1.788543952297707E2  -6.525830074599656   1.753682809969007E2  -6.547399976971029   1.438724951948408E2  -2.031318741742445E1  -2.805391074148557E1  
 1.463936430317849E11   -2.981632973764326E1   1.323643840340043E2  -6.500571113148535   1.503538712652741E2  -6.537370889269206   1.194769453446414E2  -1.976601452375856E1  -3.568562646182907E1  
 1.464058679706602E11   -3.046098631640282E1   6.585100227343442E1  -6.482399132445226   1.261365310068285E2  -6.509519219782579   9.497476413765062E1  -1.972240069957545E1  -4.365739561099934E1  
 1.464180929095355E11   -2.805276365532313E1   1.302654640960444E1  -6.486311249874819   1.013810616668909E2  -6.501064844682420   7.056727951923760E1  -2.000686198357080E1  -5.181039007138753E1  
 1.464303178484108E11   -2.614315590126358E1  -2.153103070149184E1  -6.483975241662534   7.661287258519437E1  -6.524213452611806   4.549700283642324E1  -2.089288039320790E1  -5.992912767232210E1  
 1.464425427872861E11   -2.517446513532558E1  -4.912492734400902E1  -6.503422054420716   5.199840334567640E1  -6.555698787922619   2.134273105770289E1  -2.239045135325016E1  -6.419768262425117E1  
 1.464547677261614E11   -2.614417799217233E1  -7.252619561483627E1  -6.499640225160743   2.816345740170621E1  -6.527228530311175  -3.122610944171985  -2.365359082594032E1  -6.290544981539930E1  
 1.464669926650367E11   -2.914185889500471E1  -8.628766079066777E1  -6.448913509551632   3.150207877210360  -6.488390288549748  -2.769265820616567E1  -2.469256908870445E1  -6.027063726956668E1  
 1.464792176039120E11   -3.332409948488163E1  -7.442194259298891E1  -6.429352444926399  -2.113844416915402E1  -6.477174949135867  -5.229912966352542E1  -2.573424649487729E1  -5.470817666117642E1  
 1.464914425427873E11   -3.124279958927799E1  -4.033661263924362E1  -6.417075938700215  -4.622960894653517E1  -6.460597008836997  -7.732858324539909E1  -2.604341059224327E1  -4.588029941431879E1  
 1.465036674816626E11   -2.719671194543964E1  -4.052483275163971E1  -6.445077701887093  -7.092479943489781E1  -6.477721551697481  -1.022719262198512E2  -2.538616444671437E1  -3.837936419905213E1  
 1.465158924205379E11   -2.469792156233920E1  -5.384057053223535E1  -6.475862375494888  -9.557658269048611E1  -6.517345890059713  -1.268232152787584E2  -2.450112862762956E1  -3.423190232664912E1  
 1.465281173594132E11   -2.340781348934166E1  -7.288796415486554E1  -6.561443048645794  -1.202986313072980E2  -6.593754941742699  -1.512847327051525E2  -2.353358030713956E1  -3.275567577728491E1  
 1.465403422982885E11   -2.345897022382607E1  -9.500083403148913E1  -6.577041230444722  -1.442193586990018E2  -6.618189398369498  -1.756783374559216E2  -2.227262914651891E1  -3.352827136755767E1  
 1.465525672371638E11   -2.537042114482432E1  -1.183657933958777E2  -6.544440981427098  -1.686093451198478E2  -6.582412368533995   1.601998837658418E2  -2.121330113626134E1  -4.058623545893018E1  
 1.465647921760391E11   -3.011837872939737E1  -1.414404172144895E2  -6.500242430966326   1.672844631609447E2  -6.539306579284700   1.356341284113969E2  -2.090183630035915E1  -4.930305781299263E1  
 1.465770171149144E11   -4.524807145331989E1  -1.776426139866171E2  -6.480197798027660   1.425800513882689E2  -6.503901621881114   1.110149046588936E2  -2.116187928056683E1  -5.649560073785212E1  
 1.465892420537897E11   -3.317602450054240E1  -1.945672249108442  -6.471061801448019   1.177370202987822E2  -6.495999503938871   8.637430153235637E1  -2.176179511546670E1  -6.214887433587209E1  
 1.466014669926650E11   -2.704830028794438E1  -2.131180013951810E1  -6.465196444014344   9.324126677917440E1  -6.506373396087928   6.139251733406089E1  -2.235806230427717E1  -6.696741776776433E1  
 1.466136919315403E11   -2.430717362946644E1  -4.211954595525359E1  -6.494010428225058   6.861723094969526E1  -6.533075855380861   3.639029213667165E1  -2.320033326000139E1  -7.104256519496710E1  
 1.466259168704157E11   -2.335132998716423E1  -6.164165173098917E1  -6.536881005032478   4.412594660236340E1  -6.581775870012856   1.199499001029706E1  -2.459894756641243E1  -7.264751197243841E1  
 1.466381418092910E11   -2.425710708810755E1  -7.628299202450089E1  -6.529148151892145   1.982493187786203E1  -6.571944084977578  -1.266588860503903E1  -2.557718849545035E1  -7.016954623745308E1  
 1.466503667481663E11   -2.604443988193859E1  -7.779155706022003E1  -6.503880497388142  -4.584248886978005  -6.534615214826680  -3.690608855193378E1  -2.675550875520329E1  -6.893934029649016E1  
 1.466625916870416E11   -2.649510502771638E1  -6.682732827260134E1  -6.481273420253461  -2.919364562583862E1  -6.510621926174236  -6.162807765691631E1  -2.858054221844032E1  -6.226584987402408E1  
 1.466748166259169E11   -2.447519848596279E1  -5.781305225322338E1  -6.482210065665371  -5.393151809660922E1  -6.519202554831746  -8.662914323722546E1  -2.965569663754621E1  -3.910375975383391E1  
 1.466870415647922E11   -2.191160261361279E1  -6.212727741496406E1  -6.500606966330973  -7.846807807849378E1  -6.530267936548515  -1.115945161926436E2  -2.697636242978952E1  -1.899213915239427E1  
 1.466992665036675E11   -2.006812444331936E1  -7.459207078334752E1  -6.560710174472506  -1.030840631287029E2  -6.592694537234999  -1.361970059977895E2  -2.403866642665944E1  -1.663810355025449E1  
 1.467114914425428E11   -1.899556005136097E1  -9.161142592980959E1  -6.611362195128185  -1.273962525669822E2  -6.646005977115426  -1.604203502611488E2  -2.180699065476117E1  -2.214515549833612E1  
 1.467237163814181E11   -1.916621587606915E1  -1.104488620963304E2  -6.613982572044753  -1.512389599302718E2  -6.668251877332677   1.753351679365163E2  -2.029844005423939E1  -3.250248291980151E1  
 1.467359413202934E11   -2.052433121769775E1  -1.279896600679294E2  -6.586383693630641  -1.757778922758787E2  -6.610664191223601   1.509636041752940E2  -1.975731870426586E1  -4.587710982436418E1  
 1.467481662591687E11   -2.337095606742124E1  -1.401608766286669E2  -6.532833305553376   1.596666594000062E2  -6.558399275518128   1.262321511561863E2  -2.037467899509149E1  -5.837135603429853E1  
 1.467603911980440E11   -2.813550712566008E1  -1.343108123869676E2  -6.481865643939707   1.349322390197601E2  -6.518407934508948   1.016052219153312E2  -2.206401614712044E1  -6.560040124522041E1  
 1.467726161369193E11   -2.872161643202540E1  -9.564800391741768E1  -6.467384597503197   1.101588621936659E2  -6.512773079604650   7.661241778121999E1  -2.449164500352081E1  -6.051443783181129E1  
 1.467848410757946E11   -2.399510188253520E1  -8.454402613612425E1  -6.507091918241944   8.522986822378566E1  -6.552471005042814   5.153242360801515E1  -2.504975071800363E1  -3.887757592769086E1  
 1.467970660146699E11   -2.081497022955392E1  -9.730544516185307E1  -6.583080836221059   6.125215013689061E1  -6.631392904355819   2.684319956543580E1  -2.237270025235266E1  -2.600684358128941E1  
 1.468092909535452E11   -1.944459535026815E1  -1.169686711300423E2  -6.615132224410093   3.688918193361457E1  -6.671779858911978   2.673174116338613  -1.938823549828167E1  -3.014022179561423E1  
 1.468215158924205E11   -1.953178957927124E1  -1.376261901211762E2  -6.612367302788726   1.264883758588890E1  -6.644947584828616  -2.175117754160236E1  -1.769108867830100E1  -4.257534272024983E1  
 1.468337408312958E11   -2.081006385756264E1  -1.579918846438827E2  -6.591419441550904  -1.134432914066624E1  -6.633533228291599  -4.597387416935209E1  -1.711748661926104E1  -5.712844456195695E1  
 1.468459657701711E11   -2.393306316325369E1  -1.774610933484888E2  -6.558028058284174  -3.570080620521555E1  -6.584366141589310  -7.086217457272963E1  -1.766550316169897E1  -7.122716334355309E1  
 1.468581907090465E11   -3.085093581067734E1   1.695425631596116E2  -6.522182890005911  -6.047759635541674E1  -6.552898284063936  -9.520955256893556E1  -1.930999277747540E1  -8.187951167828642E1  
 1.468704156479218E11   -3.535613524667761E1  -8.441247247207876E1  -6.488576220968400  -8.575809075862303E1  -6.536638873756545  -1.202935925203433E2  -2.198048406340682E1  -8.314821021914943E1  
 1.468826405867971E11   -2.489090670169579E1  -8.370744238386902E1  -6.538365795268113  -1.102994359886040E2  -6.585286016390075  -1.452484475336447E2  -2.414159297446180E1  -6.358354968417970E1  
 1.468948655256724E11   -2.082708189271251E1  -1.071996244417435E2  -6.589951313399964  -1.346185081814298E2  -6.648370032288996  -1.695837502534541E2  -2.165035517662332E1  -4.165153587377535E1  
 1.469070904645477E11   -1.927865622066177E1  -1.312784450414006E2  -6.622736574392667  -1.588561797474915E2  -6.671411957302460   1.657317815689690E2  -1.825694333275938E1  -4.423103455183341E1  
 1.469193154034230E11   -1.908900162455406E1  -1.552592548942857E2  -6.638582009221599   1.763957332498035E2  -6.701794867826157   1.417742433744156E2  -1.632680245235996E1  -5.683376254626464E1  
 1.469315403422983E11   -1.993078674664673E1  -1.797507175363600E2  -6.647883166798598   1.522897558205783E2  -6.707839150557614   1.175164576718909E2  -1.557755272359075E1  -7.185111368981620E1  
 1.469437652811736E11   -2.203881066368514E1   1.541149792133913E2  -6.621134525788143   1.279973147714561E2  -6.654289116471302   9.309539930849876E1  -1.577542457334694E1  -8.724207414804586E1  
 1.469559902200489E11   -2.615459025057049E1   1.216648222370020E2  -6.576259657227761   1.031813827653823E2  -6.608717638010426   6.903434149813761E1  -1.702185830527354E1  -1.008970348295360E2  
 1.469682151589242E11   -3.475920003847914E1   5.390727704044700E1  -6.537681494791036   7.898027053765463E1  -6.583524305373850   4.467903574648614E1  -1.936473213943304E1  -1.086750591657977E2  
 1.469804400977995E11   -2.978865299343056E1  -6.238510042043626E1  -6.500806580340991   5.447422898725259E1  -6.536685590526645   1.978596999729863E1  -2.225353640571083E1  -1.007027199666041E2  
 1.469926650366748E11   -2.470494663530417E1  -1.025101830916418E2  -6.470463008282538   2.887618410006095E1  -6.499332491873480  -4.712176872427374  -2.203721026020433E1  -8.074040142898591E1  
 1.470048899755501E11   -2.264102661115772E1  -1.321598412340491E2  -6.484893316816780   4.181353101255909  -6.519944808152517  -2.938709166052376E1  -1.972331320857196E1  -7.615962764032763E1  
 1.470171149144254E11   -2.223884092496229E1  -1.593135138937973E2  -6.497863308275456  -2.033002184581284E1  -6.546832018159865  -5.418109707500482E1  -1.797344646936134E1  -8.418003076281268E1  
 1.470293398533007E11   -2.333782967611825E1   1.731543599570832E2  -6.541801964593379  -4.530352293989859E1  -6.559492193840831  -7.835947763812163E1  -1.737541397214557E1  -9.729552373515911E1  
 1.470415647921760E11   -2.630676062155375E1   1.423104725839952E2  -6.540285788422962  -6.930225692666518E1  -6.568895668119318  -1.030272205005633E2  -1.791329635755741E1  -1.117331889593106E2  
 1.470537897310513E11   -3.309453073129243E1   8.826578461905547E1  -6.539144160332766  -9.396648867716797E1  -6.579647818114267  -1.275404038356369E2  -1.994217561475425E1  -1.240774969308944E2  
 1.470660146699266E11   -3.288382040152796E1  -3.701360191283297E1  -6.519653985423327  -1.183128159135605E2  -6.546816438323206  -1.515094076895320E2  -2.392910345751236E1  -1.255226350616885E2  
 1.470782396088019E11   -2.652981350393895E1  -8.801258104843772E1  -6.451146058229247  -1.431627833939774E2  -6.485646967201370  -1.758454759147830E2  -2.649152990931602E1  -9.312754293934054E1  
 1.470904645476773E11   -2.375069539011379E1  -1.177155907270743E2  -6.440336294014623  -1.680409220744047E2  -6.485008237601416   1.591298692862684E2  -2.268454723975684E1  -7.202938270911808E1  
 1.471026894865526E11   -2.271573196367325E1  -1.446081212687586E2  -6.462570142874247   1.668668181830495E2  -6.506282780771492   1.346355905314954E2  -1.948356237301154E1  -7.769147331843149E1  
 1.471149144254279E11   -2.326826009338381E1  -1.706566929933857E2  -6.503462806391757   1.421490000785567E2  -6.532121369590176   1.101410126955292E2  -1.793032185910115E1  -9.166433195075334E1  
 1.471271393643032E11   -2.548654414714568E1   1.615042681499713E2  -6.529002600199545   1.173177773838067E2  -6.550765564412209   8.573430198225860E1  -1.769845384028145E1  -1.074446525319530E2  
 1.471393643031785E11   -3.138599949368587E1   1.253459877250786E2  -6.546116456167685   9.337365614149833E1  -6.585033335183399   6.136080689657091E1  -1.879151640748551E1  -1.235186644302724E2  
 1.471515892420538E11   -3.871008486320768E1  -2.905661139079042E1  -6.552457436277527   6.894433510931614E1  -6.571701046798984   3.720971230741095E1  -2.180151657016476E1  -1.348954896435455E2  
 1.471638141809291E11   -2.771379614653636E1  -8.705575069486355E1  -6.484469317636762   4.468853674931565E1  -6.528938131789446   1.310525668436955E1  -2.677643113673092E1  -1.210780120778337E2  
 1.471760391198044E11   -2.378956912518183E1  -1.144158391766410E2  -6.442140352813917   1.977872964506221E1  -6.469580162887675  -1.154009250010979E1  -2.532393772727365E1  -7.919627330369418E1  
 1.471882640586797E11   -2.211515964749851E1  -1.397860612428539E2  -6.436712211125637  -5.115352787701020  -6.464902724854711  -3.633105012151444E1  -2.075087784126728E1  -7.571937107950458E1  
 1.472004889975550E11   -2.173264914943557E1  -1.643691366176582E2  -6.465827724630934  -2.988166873937974E1  -6.493852926633126  -6.129886877110420E1  -1.818253825485851E1  -8.822242492109153E1  
 1.472127139364303E11   -2.273668394339672E1   1.701306694136911E2  -6.497452255552826  -5.498568241760330E1  -6.515904267827039  -8.535357204042654E1  -1.718530423277571E1  -1.045716939478760E2  
 1.472249388753056E11   -2.569458830817482E1   1.443349001560225E2  -6.497660158727131  -7.935488073732927E1  -6.536263900720396  -1.095335905514688E2  -1.742631890480526E1  -1.213324833520782E2  
 1.472371638141809E11   -3.508249211991416E1   1.161298682751773E2  -6.514344275967078  -1.037665482817970E2  -6.543967100963275  -1.338654695761565E2  -1.914770111691888E1  -1.367337430613489E2  
 1.472493887530562E11   -3.623600712055583E1  -9.435887447602747E1  -6.443717094707781  -1.284140546276690E2  -6.480038355546701  -1.579496629558012E2  -2.297267027099838E1  -1.422909124022908E2  
 1.472616136919316E11   -2.692536625636853E1  -1.141179567713130E2  -6.394168137031286  -1.529706748138990E2  -6.422923956578145   1.771254664122409E2  -2.651505584744212E1  -1.121074925301309E2  
 1.472738386308069E11   -2.323422817952862E1  -1.369749821661493E2  -6.374993751345540  -1.780398129628748E2  -6.416778062022901   1.518981105248001E2  -2.249347561553212E1  -8.616164462012945E1  
 1.472860635696822E11   -2.147523371115009E1  -1.611015139370450E2  -6.435885396697656   1.574335240761323E2  -6.462860799058987   1.272348199054717E2  -1.877158590342982E1  -9.233544650425053E1  
 1.472982885085575E11   -2.106338296026919E1   1.733401204101280E2  -6.500085590507563   1.327339123886087E2  -6.527590796581830   1.027333848388616E2  -1.682750052762005E1  -1.074993686199807E2  
 1.473105134474328E11   -2.197519543479701E1   1.455422016618080E2  -6.537662988356721   1.084879881111240E2  -6.574535373511650   7.832861264497888E1  -1.619509555571545E1  -1.251354527759725E2  
 1.473227383863081E11   -2.451892197869181E1   1.142558919966691E2  -6.553174109479005   8.436377870937885E1  -6.571252535039067   5.424533141986294E1  -1.673954983480847E1  -1.432014844862336E2  
 1.473349633251834E11   -2.970832275787503E1   7.615428233571208E1  -6.465519088977063   6.045505401034740E1  -6.514075114737706   3.018946156447087E1  -1.867364250909880E1  -1.585241454860511E2  
 1.473471882640587E11   -3.513376613951913E1  -5.418165686635235  -6.375289471183344   3.569859610784554E1  -6.405926152590694   5.444815117826494  -2.187721992340766E1  -1.655682140541274E2  
 1.473594132029340E11   -2.957220110893099E1  -8.120559515458101E1  -6.305587142878194   1.103559622308511E1  -6.357479729873788  -1.953659433670044E1  -2.547615207147604E1  -1.497463814038611E2  
 1.473716381418093E11   -2.569248767064605E1  -1.160994830637667E2  -6.297847816621289  -1.389453951397064E1  -6.341660984947669  -4.471148469738641E1  -2.399298322483667E1  -1.255213377650842E2  
 1.473838630806846E11   -2.411270227612456E1  -1.422034760651389E2  -6.344184938569458  -3.910395871645664E1  -6.383404094040988  -6.964976334172864E1  -2.110179967068134E1  -1.279316779969661E2  
 1.473960880195599E11   -2.426182854759260E1  -1.632221138974022E2  -6.379724625375497  -6.375037254253200E1  -6.428038586847988  -9.447840429541220E1  -1.989692499779341E1  -1.426870920413392E2  
 1.474083129584352E11   -2.622297762981683E1  -1.742852248089846E2  -6.437074006750366  -8.819267178313108E1  -6.476156014241171  -1.188449492122829E2  -2.040064424013238E1  -1.635283085694685E2  
 1.474205378973105E11   -2.815340766153539E1  -1.602181379606671E2  -6.426283230442955  -1.120115566491971E2  -6.455787747541093  -1.430274561023108E2  -2.351897132537157E1   1.724011570035162E2  
 1.474327628361858E11   -2.572548344651295E1  -1.457305722445773E2  -6.373616628997482  -1.367052731448685E2  -6.401618303934422  -1.679091000461662E2  -3.320624977250763E1   1.440918597525611E2  
 1.474449877750611E11   -2.251521593379978E1  -1.484162693048988E2  -6.357249243256383  -1.617601073079710E2  -6.398371703375718   1.669364130605204E2  -2.981224473273842E1  -4.236186495220974E1  
 1.474572127139364E11   -2.000322270310577E1  -1.611334856843902E2  -6.420822050056494   1.729318189607786E2  -6.445625207967963   1.418465784272382E2  -2.121528701043133E1  -6.999931861399355E1  
 1.474694376528117E11   -1.845783227379620E1  -1.780024277297572E2  -6.515856984919560   1.487518198543408E2  -6.545855622267617   1.169078922811750E2  -1.748311110076227E1  -9.439549154336950E1  
 1.474816625916870E11   -1.782174133565388E1   1.628058209289012E2  -6.610894679003558   1.247134485368968E2  -6.636788489244645   9.237930051475694E1  -1.561497533052602E1  -1.186700993349061E2  
 1.474938875305624E11   -1.805974383216283E1   1.431378930727608E2  -6.698597980789089   1.009512844050041E2  -6.721519618726754   6.812147803945658E1  -1.508512192918389E1  -1.427365513609020E2  
 1.475061124694377E11   -1.940543308115760E1   1.258130376761381E2  -6.678317183444463   7.740024437028667E1  -6.706205361363753   4.504970776573018E1  -1.572842127298210E1  -1.674034152851899E2  
 1.475183374083130E11   -2.136691231316618E1   1.124187189238770E2  -6.554599265872252   5.343747560808127E1  -6.595007630545962   2.096713358634145E1  -1.780632023095461E1   1.679976735270392E2  
 1.475305623471883E11   -2.438071700103081E1   1.051839943930756E2  -6.412568099758616   2.908802441891763E1  -6.468359324389260  -3.982119488905315  -2.217164212388494E1   1.423066001970299E2  
 1.475427872860636E11   -2.776281707048078E1   1.192267171547999E2  -6.344217682138567   4.177928552918814  -6.380939777665743  -2.929859058050549E1  -3.512939375547435E1   1.067837837498620E2  
 1.475550122249389E11   -2.638856452673460E1   1.444292194346927E2  -6.355749577084581  -2.102407611545865E1  -6.396621081581796  -5.462011657627151E1  -2.690439813523285E1  -8.059369274832983E1  
 1.475672371638142E11   -2.299309280029810E1   1.433951861124954E2  -6.424873387464193  -4.590139351246384E1  -6.448913631617769  -7.974596049660036E1  -2.025059305500201E1  -1.088994714997852E2  
 1.475794621026895E11   -2.098061569342163E1   1.275200268623753E2  -6.524132157468404  -7.034314712233255E1  -6.560300949281857  -1.043304627179315E2  -1.758761735591476E1  -1.350396165784352E2  
 1.475916870415648E11   -2.043627856524002E1   1.075076694589741E2  -6.595187470242407  -9.407594845018886E1  -6.644782174169813  -1.286676927735181E2  -1.690028746946890E1  -1.605147764546221E2  
 1.476039119804401E11   -2.119374994632544E1   8.818406268426959E1  -6.553453095332169  -1.176627232608996E2  -6.592390315431358  -1.520977734520245E2  -1.750638274923410E1   1.749751384108719E2  
 1.476161369193154E11   -2.289885315779651E1   6.905442175133345E1  -6.444041492131558  -1.418630317742395E2  -6.480022569925844  -1.767849955038309E2  -1.934687807050068E1   1.493908772640424E2  
 1.476283618581907E11   -2.618424333067898E1   5.075887689316092E1  -6.341262526749261  -1.666794093691555E2  -6.362680902660054   1.586753543466875E2  -2.340562508283361E1   1.204921337923067E2  
 1.476405867970660E11   -3.299441850307842E1   3.850851744198933E1  -6.277331035646277   1.685359571297757E2  -6.291602055781769   1.334530987036141E2  -3.389898059405441E1   6.973173780892319E1  
 1.476528117359413E11   -3.939028508092659E1   1.293692404793999E2  -6.264477039834017   1.431496253471294E2  -6.317414004040290   1.083586080656714E2  -2.928362759828531E1  -8.273604890671702E1  
 1.476650366748166E11   -2.964502439736247E1   1.328005851195765E2  -6.331961701500044   1.178020810514611E2  -6.377985440868000   8.311673012987761E1  -2.258846141852445E1  -1.213306968109240E2  
 1.476772616136919E11   -2.670507198423871E1   1.110806829570431E2  -6.453637913150147   9.378735203556371E1  -6.493341329978000   5.896234217782205E1  -2.044781821590055E1  -1.521597336885941E2  
 1.476894865525672E11   -2.664013883058861E1   9.035119289625462E1  -6.462350358165748   6.994387169726859E1  -6.490799424791892   3.505069268011240E1  -2.048220384968159E1  -1.790481099074358E2  
 1.477017114914425E11   -2.802397373382702E1   7.369204020469431E1  -6.371163199633854   4.554955495410187E1  -6.404084204993526   1.072110610925270E1  -2.207364362986394E1   1.543036716636208E2  
 1.477139364303178E11   -3.070976250265177E1   5.648106543818800E1  -6.284628394301459   2.118277786715767E1  -6.327124189956947  -1.404221281036953E1  -2.593293163451278E1   1.229634784997495E2  
 1.477261613691932E11   -3.842348183423967E1   4.674214875459914E1  -6.239102172107462  -3.759394000903437  -6.286759838579349  -3.888655038271249E1  -3.539731399322643E1   5.723329055514459E1  
 1.477383863080685E11   -3.901992146313188E1   1.558367267661664E2  -6.232358922791228  -2.945480481221576E1  -6.273706729798630  -6.394054398935381E1  -2.899391092431587E1  -7.026723300439795E1  
 1.477506112469438E11   -3.030041002033605E1   1.447211248587991E2  -6.292395232227793  -5.403341774735389E1  -6.339150433870273  -8.936239744142998E1  -2.303072064579008E1  -1.082585069799956E2  
 1.477628361858191E11   -2.744099306421477E1   1.206385692341658E2  -6.403107044257340  -7.860470959863392E1  -6.440372589685369  -1.139049105080578E2  -2.061492199401048E1  -1.396571010621054E2  
 1.477750611246944E11   -2.749744073970957E1   9.809577488414267E1  -6.457403348583250  -1.025100682295630E2  -6.503523033922562  -1.377466146676705E2  -2.038832745893918E1  -1.687990367631443E2  
 1.477872860635697E11   -2.872065226670895E1   8.129153523154368E1  -6.407009061906975  -1.268609058195945E2  -6.447019647126694  -1.615211524867743E2  -2.210587106978622E1   1.639997255549866E2  
 1.477995110024450E11   -3.178384961903988E1   6.174655864781067E1  -6.324167652756306  -1.515433903847075E2  -6.374893411545237   1.737637222780524E2  -2.627545465653910E1   1.335653582665844E2  
 1.478117359413203E11   -4.216742977954250E1   4.842393280566137E1  -6.280235391035218  -1.765374132821916E2  -6.312598516388789   1.490540694504831E2  -3.897114562714462E1   5.383409245861449E1  
 1.478239608801956E11   -3.537345538989290E1  -1.752467013202583E2  -6.255036555635375   1.584251817807138E2  -6.315558069477048   1.240209696710586E2  -2.700080893937220E1  -7.132898678576687E1  
 1.478361858190709E11   -2.753896302523308E1   1.630004899393587E2  -6.315844491319401   1.333113410132538E2  -6.369669281381385   9.911055587333652E1  -2.086282398826627E1  -1.043510754901712E2  
 1.478484107579462E11   -2.385436009342820E1   1.379050536301081E2  -6.411013544616653   1.083349625195643E2  -6.474043937308534   7.452696106550030E1  -1.794359137377628E1  -1.322599506866741E2  
 1.478606356968215E11   -2.237051790493407E1   1.126391668891994E2  -6.536520365533630   8.422337911031580E1  -6.586883592031257   5.026742739489402E1  -1.683430453815882E1  -1.590784287770623E2  
 1.478728606356968E11   -2.208864091784271E1   8.947551753556675E1  -6.535544328591370   6.042627802547237E1  -6.580167038332491   2.669090057540721E1  -1.696132052306843E1   1.766360768806683E2  
 1.478850855745721E11   -2.248897921492713E1   6.584501473728169E1  -6.449194265528586   3.636166124637250E1  -6.499143278177652   2.860926359778324  -1.808654942850424E1   1.539420046660653E2  
 1.478973105134474E11   -2.421006686207100E1   3.955342375694699E1  -6.364246724863518   1.160792985557550E1  -6.410099144921412  -2.138167221497108E1  -2.074033843234974E1   1.328934686775182E2  
 1.479095354523228E11   -2.775504873051629E1   8.180862675009104  -6.276109125867910  -1.344559064120758E1  -6.325251423387107  -4.638552258058463E1  -2.595548865332661E1   1.193220987976749E2  
 1.479217603911981E11   -3.570717436592606E1  -4.809080583017811E1  -6.248025298384536  -3.886630282822975E1  -6.305805564434848  -7.142949257154584E1  -3.344072933996285E1   1.687890509805546E2  
 1.479339853300734E11   -3.324371317192787E1  -1.738191132273498E2  -6.302386150230699  -6.405322724397541E1  -6.348758831950667  -9.646641209499896E1  -2.516940792548878E1  -1.617303436833260E2  
 1.479462102689487E11   -2.740545599208439E1   1.432660256201467E2  -6.414740779564160  -8.883373257877196E1  -6.465798056724905  -1.211857715572927E2  -2.123697817131188E1   1.796891974354811E2  
 1.479584352078240E11   -2.526072109659897E1   1.169362431677573E2  -6.451736335190760  -1.127664048088672E2  -6.507343031899575  -1.451168478444247E2  -1.996543428577665E1   1.568219349621728E2  
 1.479706601466993E11   -2.440423196031181E1   9.403873012838103E1  -6.414220881402471  -1.371791901037479E2  -6.466712919814087  -1.691330639132922E2  -2.006539094952200E1   1.326354803363902E2  
 1.479828850855746E11   -2.467125131375742E1   7.327423270516562E1  -6.368519472691800  -1.615796372894816E2  -6.406232863905255   1.666022902356217E2  -2.152577575227986E1   1.052818818246825E2  
 1.479951100244499E11   -2.654637879413503E1   5.560822520401929E1  -6.305151331285681   1.734130459895686E2  -6.349363604060600   1.419085360580247E2  -2.504797275613763E1   7.099008935269535E1  
 1.480073349633252E11   -3.038927584428945E1   5.070804694154877E1  -6.281534257676081   1.481717192908848E2  -6.329600845303123   1.169253676197873E2  -3.155177533709352E1   2.166953494834465  
 1.480195599022005E11   -3.257135927367881E1   7.677401844847155E1  -6.330712308839192   1.226576205682194E2  -6.380181849341892   9.173085637118491E1  -2.764553024282502E1  -1.010035450621109E2  
 1.480317848410758E11   -2.908395106374598E1   8.841482181433821E1  -6.467377646890315   9.799357225235850E1  -6.516078226539772   6.735804754049048E1  -2.253729757316907E1  -1.477011356765864E2  
 1.480440097799511E11   -2.713442537342091E1   8.157794021463992E1  -6.533759677121307   7.408976023806720E1  -6.565723761159646   4.344371776200192E1  -2.069267262364649E1  -1.794820629964758E2  
 1.480562347188264E11   -2.563693771766636E1   6.921811025877855E1  -6.495457843423997   4.991459806554664E1  -6.530829445159127   1.943325125396267E1  -2.018654589180039E1   1.548717351287119E2  
 1.480684596577017E11   -2.503348149242052E1   4.977176931191591E1  -6.440844829949864   2.586271051432323E1  -6.487047007894472  -4.734164196241246  -2.076452058491495E1   1.303247495727985E2  
 1.480806845965770E11   -2.609599739746274E1   2.555505807752177E1  -6.387710722572838   1.140612639761877  -6.415770930462688  -2.952502818200880E1  -2.298789672509232E1   1.063720577777991E2  
 1.480929095354523E11   -2.958671672789806E1  -3.724094004010204  -6.345960911414633  -2.392488273432016E1  -6.371881316415220  -5.451449301662532E1  -2.828930579154363E1   8.388599880841908E1  
 1.481051344743276E11   -3.915897301812230E1  -6.307508354443040E1  -6.343972348213904  -4.901006676110999E1  -6.385633323644338  -7.971480172580806E1  -4.505480991177064E1   1.689251445558952E2  
 1.481173594132029E11   -3.365140992329392E1   1.574097908134063E2  -6.442271258484224  -7.405516769022862E1  -6.492002286690402  -1.044232890600433E2  -2.709059462324557E1  -1.635818352587970E2  
 1.481295843520783E11   -2.766765525585407E1   1.232618269870642E2  -6.575591541185033  -9.826575380459273E1  -6.590802670336983  -1.285207252233448E2  -2.253822087115616E1   1.724720016190021E2  
 1.481418092909536E11   -2.446528756436575E1   1.003263791561094E2  -6.571707820055479  -1.221940537928500E2  -6.594502465550197  -1.527896777811209E2  -2.070150918678549E1   1.505988010103594E2  
 1.481540342298289E11   -2.272087855091659E1   7.667068594396773E1  -6.543252856572155  -1.467127989515981E2  -6.565527158660481  -1.765088281807427E2  -2.002187003961403E1   1.294845027432810E2  
 1.481662591687042E11   -2.227011077881437E1   5.127273112682613E1  -6.492778845819213  -1.709600761059158E2  -6.518367055544654   1.588505525192755E2  -2.042819640711417E1   1.079273308757729E2  
 1.481784841075795E11   -2.319384566455758E1   2.579537834858859E1  -6.416980674134938   1.646734505900284E2  -6.452825054433689   1.340937640721187E2  -2.225669288995697E1   8.692396108512750E1  
 1.481907090464548E11   -2.597816741641382E1  -1.447932933254954  -6.381984341871595   1.395125429836467E2  -6.402187049785710   1.095151273436972E2  -2.627397907267311E1   6.990250594330470E1  
 1.482029339853301E11   -3.179993457515302E1  -2.830106199698333E1  -6.392996545472118   1.145040962421082E2  -6.410802181379036   8.455614237886596E1  -3.458995532083274E1   8.971275153823656E1  
 1.482151589242054E11   -5.333245815665752E1  -1.553625400081884E2  -6.476664112572520   8.968596597447210E1  -6.498264219797266   5.992031322069425E1  -2.861569041569092E1   1.463216535944910E2  
 1.482273838630807E11   -3.159424693467935E1   1.192535579345887E2  -6.503649875460603   6.558875800959774E1  -6.534745347622270   3.520019663817455E1  -2.413900680849337E1   1.349014939812682E2  
 1.482396088019560E11   -2.596313582868742E1   9.189998034514605E1  -6.487491795715557   4.135486899329037E1  -6.521545295468973   1.119944912256628E1  -2.209031622187804E1   1.177062469598782E2  
 1.482518337408313E11   -2.380494179421947E1   6.412513993582019E1  -6.465717107149225   1.720984115269848E1  -6.496189178358263  -1.322458773080052E1  -2.133070069025810E1   9.917511806359129E1  
 1.482640586797066E11   -2.326017987252175E1   3.740922554306773E1  -6.429562012910958  -7.421393088958364  -6.465526530268992  -3.798257870368465E1  -2.172616771893894E1   8.090726090928357E1  
 1.482762836185819E11   -2.423712539083660E1   8.235435477251212  -6.384200954688060  -3.195389679201575E1  -6.428745681852282  -6.288462140459108E1  -2.344510721948145E1   6.476188528483770E1  
 1.482885085574572E11   -2.674003664287954E1  -2.170578886697831E1  -6.375801437088656  -5.700662276196983E1  -6.426963232507668  -8.810843031928231E1  -2.661273468436748E1   5.979461585377890E1  
 1.483007334963325E11   -3.145263666799547E1  -6.301861745596974E1  -6.454206193399156  -8.176636234382154E1  -6.486179308256231  -1.127891980296143E2  -2.827973195125748E1   8.243708728658578E1  
 1.483129584352078E11   -3.401733402854095E1  -1.412407104230254E2  -6.500094194056709  -1.060369392174901E2  -6.539380899655205  -1.373428850081848E2  -2.497876022835527E1   8.941311216064835E1  
 1.483251833740831E11   -2.933857299232284E1   1.518026475031351E2  -6.491824947762808  -1.299806004126523E2  -6.525190649691827  -1.617726071408798E2  -2.270722021645937E1   7.696756239485242E1  
 1.483374083129584E11   -2.598098069218139E1   1.156539554187547E2  -6.465672979125290  -1.542113769107359E2  -6.503110504240399   1.736941529965110E2  -2.145225266815835E1   5.921164262257544E1  
 1.483496332518337E11   -2.444473746694844E1   8.943987668261165E1  -6.443719922081590  -1.791428517656974E2  -6.466965691560097   1.494949715718611E2  -2.114782230005601E1   3.703855058716108E1  
 1.483618581907091E11   -2.457167084549979E1   6.903247230508879E1  -6.405293655441353   1.563016799446185E2  -6.445886811466040   1.245093892895327E2  -2.183628258958555E1   1.154804468903179E1  
 1.483740831295844E11   -2.557926477774737E1   5.719975467848459E1  -6.390790889450685   1.316915912676430E2  -6.439485420769160   9.965228221817704E1  -2.372350508356534E1  -1.840608658479344E1  
 1.483863080684597E11   -2.661958118400808E1   5.721570704479036E1  -6.452307829646427   1.066939930636963E2  -6.483028720736151   7.461266130706997E1  -2.736093083834259E1  -5.898139017313186E1  
 1.483985330073350E11   -2.657140984375587E1   6.269425420820264E1  -6.483695839784166   8.241251129200252E1  -6.526504908963020   5.030865417395589E1  -3.192275366455977E1  -1.237705844244532E2  
 1.484107579462103E11   -2.483466840478757E1   6.702653657841309E1  -6.493438096289597   5.815975404213978E1  -6.539295360255069   2.545065528529988E1  -2.994595307236308E1   1.618398433788897E2  
 1.484229828850856E11   -2.266644845281376E1   5.892107079012538E1  -6.500830314090870   3.391557580128797E1  -6.530842031597542   9.889991910277728E-1  -2.644119560705609E1   1.186396048177514E2  
 1.484352078239609E11   -2.128642295324306E1   4.453248007019231E1  -6.495865257168497   9.398828454013970  -6.536710471727275  -2.352149941839853E1  -2.445194861893333E1   8.763278135582952E1  
 1.484474327628362E11   -2.103156308582684E1   2.613201146949328E1  -6.490240452433752  -1.483667246951741E1  -6.517664053675643  -4.845034970378879E1  -2.382420442350025E1   6.068976213038079E1  
 1.484596577017115E11   -2.171751743337740E1   7.803403212333679  -6.468421054483548  -3.933805090814147E1  -6.519040335944644  -7.309177436209561E1  -2.456625930221153E1   3.580234926374903E1  
 1.484718826405868E11   -2.360864762753487E1  -8.932688115951525  -6.497647973346663  -6.399872440352527E1  -6.533669941389487  -9.749770505423555E1  -2.702416850303934E1   1.665120362509188E1  
 1.484841075794621E11   -2.684441839804804E1  -2.406788414376396E1  -6.527850529748076  -8.849513129776375E1  -6.567250278445912  -1.220544533745620E2  -3.045481862758174E1   9.633674836749892  
 1.484963325183374E11   -3.373413322324219E1  -2.596680987659805E1  -6.496762737103708  -1.128017764519237E2  -6.526436942380878  -1.463703978854323E2  -3.309953215585757E1   2.278956705707262E1  
 1.485085574572127E11   -3.594496582112937E1   5.346801229229538E1  -6.485955517686684  -1.370876157825055E2  -6.513621965569089  -1.712317995061835E2  -3.227214148139213E1   3.975835566738301E1  
 1.485207823960880E11   -2.905852022943957E1   5.932593255061217E1  -6.460661691368903  -1.621831612713783E2  -6.483547355499282   1.641827015219105E2  -3.016438580800973E1   3.729304257273036E1  
 1.485330073349633E11   -2.629805354255774E1   4.571085677660316E1  -6.461826466874395   1.733201260734547E2  -6.503092032100594   1.393405936576216E2  -2.878167129245854E1   1.941038763700140E1  
 1.485452322738386E11   -2.578684430877670E1   3.328252733958900E1  -6.470276374863413   1.485266238175020E2  -6.506089770311529   1.145576713598890E2  -2.920646225531718E1  -9.710710612660426  
 1.485574572127139E11   -2.668469505637385E1   2.565819410188731E1  -6.542111073403002   1.238538875448409E2  -6.584053839942229   8.962394282818666E1  -3.157747020398008E1  -5.438191743379782E1  
 1.485696821515892E11   -2.856372410241939E1   2.441539494621837E1  -6.615087724711705   9.910599320831568E1  -6.637942261665606   6.570044368917377E1  -3.378478108398177E1  -1.317586438538666E2  
 1.485819070904645E11   -2.931267651370154E1   5.086585219454577E1  -6.602672861127433   7.527749393865435E1  -6.631163043352374   4.140892080841231E1  -3.021616234207286E1   1.684769010852506E2  
 1.485941320293398E11   -2.516440125212463E1   6.408314969728944E1  -6.592661727477815   5.074007838861242E1  -6.618951007672663   1.692019908539753E1  -2.638808797778744E1   1.352809262374351E2  
 1.486063569682152E11   -2.153579617132640E1   5.465484039123664E1  -6.592654696256181   2.639229829820984E1  -6.611053872956532  -7.471768597873361  -2.356310350916984E1   1.093276362296249E2  
 1.486185819070905E11   -1.938422150810352E1   3.883530388621903E1  -6.598293843210211   1.946529169680113  -6.622894904990278  -3.206298718782015E1  -2.182940382144167E1   8.593259582871737E1  
 1.486308068459658E11   -1.842445516764375E1   2.114613948199134E1  -6.604301586511252  -2.267064706680243E1  -6.632048672348144  -5.671388573482282E1  -2.113991836322997E1   6.377619657494259E1  
 1.486430317848411E11   -1.832691390661703E1   3.051218659867710  -6.614399406450001  -4.748355662091883E1  -6.651796350562159  -8.087355056891782E1  -2.124704011539154E1   4.317294050746529E1  
 1.486552567237164E11   -1.899930823077748E1  -1.458504305625348E1  -6.630298835914090  -7.162236223749999E1  -6.656379577503635  -1.051182342579392E2  -2.226582414034730E1   2.723227505231401E1  
 1.486674816625917E11   -2.084105267370327E1  -3.063668261182603E1  -6.595406331538513  -9.572352508987927E1  -6.626462464331826  -1.294065365835107E2  -2.355977283544379E1   1.480482067698222E1  
 1.486797066014670E11   -2.427621518837762E1  -3.926358893511095E1  -6.524078758218580  -1.203241461289543E2  -6.564926176790068  -1.536974967446207E2  -2.581758926375658E1   5.890276738463336  
 1.486919315403423E11   -2.814859455221133E1  -2.409998986158915E1  -6.482880750407579  -1.452150481969740E2  -6.513307196962114  -1.786171028985660E2  -2.860551973850654E1   1.139272832650186E1  
 1.487041564792176E11   -2.666639429047686E1   5.289952173122409  -6.458493482889812  -1.701800471529691E2  -6.499564232694590   1.567879432649146E2  -2.874456140800896E1   3.211797468684175E1  
 1.487163814180929E11   -2.332742332556305E1   5.803151530858846  -6.493665539435699   1.648997682202177E2  -6.512381018792358   1.319043265263338E2  -2.616617636551650E1   3.786433932350650E1  
 1.487286063569682E11   -2.134737773287488E1  -5.747064465872994  -6.524314032074883   1.403410415613870E2  -6.559864338317999   1.072137918021723E2  -2.421601413965222E1   2.892339262375970E1  
 1.487408312958435E11   -2.064097588648263E1  -2.263948832649109E1  -6.582464300750235   1.159712351479488E2  -6.607736987399540   8.309437898821476E1  -2.355409667469308E1   1.850591603208793E1  
 1.487530562347188E11   -2.124244158252000E1  -4.129982608801441E1  -6.570453745646052   9.184490130016057E1  -6.598775604426394   5.880844735382869E1  -2.321063535084360E1   7.577463777043982  
 1.487652811735941E11   -2.343617099225780E1  -5.772892759723802E1  -6.507281678526014   6.745699678075411E1  -6.539105436913377   3.463949707811181E1  -2.362837211884485E1  -5.357606960993486  
 1.487775061124694E11   -2.777421993508377E1  -6.462504680600559E1  -6.461821549862687   4.260489833073909E1  -6.499866086174883   1.048668286483174E1  -2.532363818193753E1  -1.754573540230240E1  
 1.487897310513447E11   -3.305989928200511E1  -3.353705766666216E1  -6.428985956226539   1.769377069921979E1  -6.450538674630463  -1.446986252646669E1  -2.817867983251586E1  -1.988537886100987E1  
 1.488019559902200E11   -2.873865766122221E1   2.607836356791095  -6.412244293037890  -7.189686326613654  -6.451166164974191  -3.924999240807073E1  -3.037070082509264E1  -1.874580594081382E-1  
 1.488141809290953E11   -2.456282050516921E1  -3.523628765836439  -6.447995538454839  -3.229645123886608E1  -6.477876996236484  -6.390425824058926E1  -2.841201785640762E1   1.631774538450295E1  
 1.488264058679706E11   -2.247150375589239E1  -1.978311409590068E1  -6.518748635393315  -5.683916155042152E1  -6.546629285695355  -8.835023154524454E1  -2.589011273519270E1   1.744478260521979E1  
 1.488386308068460E11   -2.206820318686293E1  -4.078488930346738E1  -6.519266188292667  -8.138772942471148E1  -6.559589810597259  -1.123724680626448E2  -2.402698938402740E1   9.444197916939157  
 1.488508557457213E11   -2.338077536709406E1  -6.200938477146841E1  -6.503138730388417  -1.058558722690159E2  -6.529963460049453  -1.364841461153654E2  -2.298699804300417E1  -4.691653738624124  
 1.488630806845966E11   -2.668497018406733E1  -8.204347656375948E1  -6.457710240664053  -1.304179139145506E2  -6.479646765548774  -1.610157899622820E2  -2.318444712357610E1  -2.085731122316112E1  
 1.488753056234719E11   -3.426321523960256E1  -9.934713737873665E1  -6.408552656143323  -1.548808788432992E2  -6.444944482748956   1.742727355769610E2  -2.449366170537180E1  -3.492706012299800E1  
 1.488875305623472E11   -3.920758727877628E1   4.340543891047839E1  -6.408597092892084  -1.796790158712867E2  -6.442295920857025   1.493007962838676E2  -2.691973535502817E1  -4.319767133498177E1  
 1.488997555012225E11   -2.800638189587968E1   3.077713574452844E1  -6.429860487198935   1.550904688248114E2  -6.461742314987095   1.246700052676711E2  -2.973284702466078E1  -3.672397610214566E1  
 1.489119804400978E11   -2.393925494718801E1   9.317796091535989  -6.490829242586148   1.305158114225713E2  -6.516309324529842   1.000344330579228E2  -3.057653296702762E1  -2.006351216914490E1  
 1.489242053789731E11   -2.244518200940797E1  -1.180236023009815E1  -6.516375548095956   1.064726776193298E2  -6.554050415906862   7.599451483471056E1  -2.831513182216414E1  -9.316724665582788  
 1.489364303178484E11   -2.277567314888774E1  -2.928981008080391E1  -6.482569606925313   8.184696034618926E1  -6.500271517141831   5.187411976226992E1  -2.622824789542235E1  -1.907889656970964E1  
 1.489486552567237E11   -2.437566281464846E1  -4.117403922732493E1  -6.432333048673568   5.766993583196536E1  -6.473757147626722   2.720200757648060E1  -2.579621192326600E1  -3.821326564660440E1  
 1.489608801955990E11   -2.662820399365510E1  -4.121606064056925E1  -6.388494885837609   3.247966739046276E1  -6.418853824354653   2.715888209968846  -2.722430103607816E1  -6.359090151445561E1  
 1.489731051344743E11   -2.723581432993203E1  -2.425083150825390E1  -6.389718930334937   7.704280857432408  -6.412831676593010  -2.229037415373884E1  -3.116690047348914E1  -1.013947262911770E2  
 1.489853300733496E11   -2.496479955894409E1  -1.377093364645386E1  -6.401031209133323  -1.713338995330667E1  -6.429490815073747  -4.713400209118221E1  -3.519408663857897E1   1.771152256858665E2  
 1.489975550122250E11   -2.216893253520494E1  -2.014539607514321E1  -6.455729579722359  -4.194522308362240E1  -6.486585034369678  -7.162645083237739E1  -2.924746849432316E1   1.043803166597620E2  
 1.490097799511003E11   -2.049968265332286E1  -3.698695328185377E1  -6.502633892968770  -6.601154788126428E1  -6.524140435487023  -9.584560474786107E1  -2.465225220052108E1   7.013332315885354E1  
 1.490220048899756E11   -2.045828990505564E1  -5.737422251723672E1  -6.473953182775099  -9.055806094055596E1  -6.532072497178706  -1.203725202032039E2  -2.211122845550654E1   4.355846011324500E1  
 1.490342298288509E11   -2.179062925594977E1  -7.912403784675649E1  -6.445417167459869  -1.150926011372192E2  -6.486096906803333  -1.446216876381426E2  -2.121379683122054E1   2.177833464921755E1  
 1.490464547677262E11   -2.535352255063212E1  -1.027087338025918E2  -6.415835572794898  -1.396139576418130E2  -6.433978072067236  -1.689262890814866E2  -2.157832244294591E1   3.549304876945202  
 1.490586797066015E11   -3.439148279823027E1  -1.348881633337058E2  -6.372929991365388  -1.647693906567313E2  -6.407762772440681   1.661722735733541E2  -2.300679664020642E1  -8.250159150561069  
 1.490709046454768E11   -3.156956871851227E1   5.054327055244760E1  -6.385945152037460   1.703877240993827E2  -6.411112365327834   1.413672715280410E2  -2.498421413691977E1  -6.662977962357700  
 1.490831295843521E11   -2.317313618329711E1   1.899611690860623E1  -6.456128237888852   1.457586599783870E2  -6.481014507470237   1.161489816819410E2  -2.504612175313158E1   7.710712405833201  
 1.490953545232274E11   -1.955986843890540E1  -7.128657410261779  -6.523676167124011   1.212775714377519E2  -6.548530671118758   9.160374845566935E1  -2.235812016927299E1   1.577132652060308E1  
 1.491075794621027E11   -1.799984311865219E1  -3.122902587069058E1  -6.554165803100216   9.742619570580538E1  -6.594067867222591   6.743974153620100E1  -1.957695005925972E1   6.901730458032897  
 1.491198044009780E11   -1.758999318998360E1  -5.349430679651550E1  -6.582283466397119   7.322849518480717E1  -6.621877186993334   4.285050402066188E1  -1.790031620544162E1  -9.625702719098578  
 1.491320293398533E11   -1.814042578879172E1  -7.467741198712218E1  -6.567934207163727   4.879656749330117E1  -6.608000700218416   1.875547037008805E1  -1.733429551657634E1  -2.840351530920106E1  
 1.491442542787286E11   -1.980223501124044E1  -9.525744764308739E1  -6.527310135209574   2.468626636964284E1  -6.558254892022684  -5.471655456848920  -1.780785787723996E1  -4.782379012312932E1  
 1.491564792176039E11   -2.318120690814446E1  -1.137420283892913E2  -6.482076560326370   3.568457910180046E-1  -6.518362669796252  -3.030785040431755E1  -1.943933569573197E1  -6.672886696827443E1  
 1.491687041564792E11   -3.086294593856639E1  -1.146038722414348E2  -6.448316297339353  -2.434939686298859E1  -6.485050134380160  -5.475619478061623E1  -2.293268390982742E1  -8.366970594105374E1  
 1.491809290953545E11   -3.073497908966550E1  -3.781491750464819E1  -6.458314870332194  -4.904999573083527E1  -6.486141171126650  -7.914223189773193E1  -3.076982878390934E1  -8.281009587732511E1  
 1.491931540342298E11   -2.427236480691980E1  -4.028984626883538E1  -6.432476077024992  -7.347482213729151E1  -6.466901898307245  -1.041618502285141E2  -2.971897587125304E1  -2.668483452963560E-1  
 1.492053789731051E11   -2.155191651249613E1  -5.636581211479512E1  -6.445997443493398  -9.827996652788482E1  -6.491000540772362  -1.287860895894623E2  -2.269713639424529E1  -2.917137477928737  
 1.492176039119804E11   -2.042256846188753E1  -7.531902531777583E1  -6.488910968824365  -1.227054988519280E2  -6.523328608174269  -1.534684666789561E2  -1.948400513628521E1  -2.147468832274564E1  
 1.492298288508557E11   -2.071239050474650E1  -9.636965930519780E1  -6.490169903308765  -1.468205078963898E2  -6.525131587254355  -1.781844519865249E2  -1.820615416486291E1  -4.157324391463257E1  
 1.492420537897311E11   -2.218682848240127E1  -1.187093008107252E2  -6.466832891204812  -1.711300716430369E2  -6.505537305512670   1.575690255906387E2  -1.819518027516686E1  -6.209898660573003E1  
 1.492542787286064E11   -2.600913533350747E1  -1.423014314151268E2  -6.443688023578093   1.647679517774574E2  -6.464219990217996   1.328654680004852E2  -1.932127493819530E1  -8.222607143484252E1  
 1.492665036674817E11   -3.628159468161706E1  -1.655826792620253E2  -6.382498351953915   1.404713821473511E2  -6.426914295309328   1.086207682202669E2  -2.198491836804108E1  -1.005227082886220E2  
 1.492787286063570E11   -3.486760033039644E1  -6.878768063769140  -6.326236284629858   1.155373484244907E2  -6.357894088091612   8.374558386755537E1  -2.711112114047888E1  -1.086632053358466E2  
 1.492909535452323E11   -2.669309126357477E1  -2.671393434919106E1  -6.292007225547974   9.078890053103061E1  -6.336493664997527   5.912789965372344E1  -3.237571322020876E1  -6.511706084801229E1  
 1.493031784841076E11   -2.377880589913095E1  -4.662942252482229E1  -6.291561666621889   6.580601766190270E1  -6.334290115244373   3.399182169958873E1  -2.655141206137991E1  -4.151950686968849E1  
 1.493154034229829E11   -2.273331299716175E1  -6.634737681043561E1  -6.310108988055140   4.115629473787795E1  -6.352515905148854   9.314734417541244  -2.303248749416843E1  -5.509269655389452E1  
 1.493276283618582E11   -2.320636913994519E1  -8.266591887602107E1  -6.338482605035746   1.697698291708178E1  -6.359802349657242  -1.548343638984612E1  -2.186951502030075E1  -7.705287506824479E1  
 1.493398533007335E11   -2.558709523579043E1  -9.104684710685913E1  -6.334829230160957  -7.974414405464855  -6.378504747923496  -4.029239848952944E1  -2.242913817708903E1  -1.040251591646385E2  
 1.493520782396088E11   -2.767036285397755E1  -7.582551317705038E1  -6.342465708643083  -3.238994221427892E1  -6.388834368566056  -6.476295137514599E1  -2.484202550894782E1  -1.384841544582745E2  
 1.493643031784841E11   -2.528269529096404E1  -6.081984457401926E1  -6.320754019783548  -5.675759578994398E1  -6.374788124079311  -8.904481148997164E1  -2.874908644608994E1   1.625070191243705E2  
 1.493765281173594E11   -2.245220522868121E1  -6.603145105568262E1  -6.327010408329845  -8.177691781607405E1  -6.364044767435558  -1.140976652402933E2  -2.746975435615351E1   7.729055931532189E1  
 1.493887530562347E11   -2.070374246394216E1  -7.939088814428227E1  -6.331541248551011  -1.065362647476846E2  -6.405168277321806  -1.388319549683779E2  -2.305168745027094E1   2.685834572243362E1  
 1.494009779951100E11   -1.989218965927318E1  -9.635975869147485E1  -6.386705760741402  -1.312541995828399E2  -6.428599778225059  -1.634529515176305E2  -2.036612216041252E1  -7.354144530530988  
 1.494132029339853E11   -2.012480212820464E1  -1.160837191144352E2  -6.430492781873842  -1.556090502134739E2  -6.474685133011683   1.720995053591751E2  -1.914130350418093E1  -3.586806606930897E1  
 1.494254278728606E11   -2.161836183023206E1  -1.376054689478787E2  -6.473970647652156   1.798449438471681E2  -6.488324347473062   1.478510738508791E2  -1.917565480071429E1  -6.360805945021460E1  
 1.494376528117359E11   -2.592816925720243E1  -1.588510678334063E2  -6.485344925671655   1.558636581260317E2  -6.530345349452015   1.234430490594240E2  -2.068497971362059E1  -9.273802052803069E1  
 1.494498777506112E11   -3.448791781550326E1  -1.640369646928384E2  -6.429293652022425   1.316513952528531E2  -6.460020714898455   9.938224001674186E1  -2.435072331935406E1  -1.253306444587860E2  
 1.494621026894865E11   -3.505993782804624E1  -5.762770588338218E1  -6.318820854855232   1.075105918789065E2  -6.365816001978489   7.448348838887350E1  -3.285198611083395E1  -1.717752601692757E2  
 1.494743276283619E11   -2.677274106669955E1  -5.795551203518969E1  -6.314906112478411   8.202160244795783E1  -6.355416878127755   4.968603909501071E1  -3.155866127007915E1   4.249083815327109E1  
 1.494865525672372E11   -2.325606997020847E1  -7.481783846257659E1  -6.351719892157020   5.734721417520581E1  -6.380217885492516   2.497830089223306E1  -2.444509624082203E1   2.443055723100861E-1  
 1.494987775061125E11   -2.168956659617489E1  -9.456191436598617E1  -6.409115539856985   3.245404677146954E1  -6.415356883461548   3.966576740413603E-1  -2.167521357251660E1  -2.971445857437108E1  
 1.495110024449878E11   -2.164456999456135E1  -1.150512660457063E2  -6.446315847432468   7.985087512205605  -6.473578240770254  -2.428752406875928E1  -2.088169540328579E1  -5.824867727839243E1  
 1.495232273838631E11   -2.330741326276352E1  -1.334517233129879E2  -6.473378181733887  -1.639801543496683E1  -6.518054688460833  -4.805774610071012E1  -2.175995247031235E1  -8.855299914734236E1  
 1.495354523227384E11   -2.719302232250402E1  -1.409185132071520E2  -6.438614156673438  -4.018945106766364E1  -6.478349244686449  -7.268659977195014E1  -2.465280163793097E1  -1.241617091933049E2  
 1.495476772616137E11   -3.004757395751680E1  -1.168705348273722E2  -6.359746657518789  -6.466380691373827E1  -6.396122980153280  -9.715600382228317E1  -3.009161029485724E1   1.734560854588179E2  
 1.495599022004890E11   -2.757958034893041E1  -9.536092898818806E1  -6.305936625046063  -8.954643716709765E1  -6.337572889759399  -1.216752595908082E2  -2.763121409507076E1   7.696669206743596E1  
 1.495721271393643E11   -2.424550678870670E1  -9.889291699553648E1  -6.314482423183224  -1.144362924195633E2  -6.341565202471394  -1.468859387812500E2  -2.234915675208329E1   3.102985871132557E1  
 1.495843520782396E11   -2.232705954947394E1  -1.158345820619781E2  -6.367925101543311  -1.393956789350537E2  -6.396794107277804  -1.715300059204296E2  -1.963098360832965E1  -1.195685978507056  
 1.495965770171149E11   -2.183539933724668E1  -1.364563828636339E2  -6.429908490837420  -1.638635530417364E2  -6.460770562451498   1.642038129448369E2  -1.854384146638265E1  -2.818013480447832E1  
 1.496088019559902E11   -2.277866782362703E1  -1.613210400503419E2  -6.468136182151435   1.716705301614115E2  -6.486019967009264   1.398489607475487E2  -1.885320267130576E1  -5.347399532761074E1  
 1.496210268948655E11   -2.605078765624828E1   1.697384623429533E2  -6.436553385803597   1.476304170627490E2  -6.464497473092218   1.158592215372668E2  -2.095113147781952E1  -7.725748395847913E1  
 1.496332518337408E11   -3.399913099253908E1   1.342925673272650E2  -6.327274188779787   1.236872406416883E2  -6.366580372814748   9.172552243587548E1  -2.567540266486653E1  -9.387064100668417E1  
 1.496454767726162E11   -3.641869827033330E1  -1.825032206668624E1  -6.257529145806599   9.826969004391103E1  -6.275945847141005   6.716278645202685E1  -3.676108818401109E1  -4.529245523068008E1  
 1.496577017114915E11   -2.728875633182804E1  -6.095549154465851E1  -6.233106394754119   7.297168764219697E1  -6.279881051064431   4.173030403295910E1  -2.558517622924407E1   5.403355564425034  
 1.496699266503668E11   -2.330668961311305E1  -8.957880293985463E1  -6.304230810584472   4.800068961443945E1  -6.303065921241641   1.726768693959191E1  -2.014574557033229E1  -1.078222555653952E1  
 1.496821515892421E11   -2.159174513495690E1  -1.185214417340487E2  -6.392093448954924   2.329555425318371E1  -6.419491092680527  -7.684578667069983  -1.772795595762815E1  -3.159693753825607E1  
 1.496943765281174E11   -2.149209018254554E1  -1.485937896963101E2  -6.471454338018262  -1.056166844392454  -6.492309598926449  -3.220242872093464E1  -1.681945127475608E1  -5.282268454392161E1  
 1.497066014669927E11   -2.300988126930326E1   1.776535384210728E2  -6.505206700710909  -2.491341804555284E1  -6.532018194562392  -5.556695370792685E1  -1.719065924107589E1  -7.295864074718139E1  
 1.497188264058680E11   -2.584171864120627E1   1.384944463576319E2  -6.386778487775082  -4.884612700450901E1  -6.406005006599985  -7.948984766933347E1  -1.873661168297351E1  -8.927985012494021E1  
 1.497310513447433E11   -2.838805138195126E1   8.146638706926754E1  -6.260127911192728  -7.328907837927939E1  -6.273040498960564  -1.040175981558617E2  -2.156385587570777E1  -9.849387090402922E1  
 1.497432762836186E11   -2.688046626255045E1   1.332677488825680E1  -6.174963469916222  -9.869346914176853E1  -6.189163663781878  -1.289951355772873E2  -2.498457861913504E1  -8.856483740919968E1  
 1.497555012224939E11   -2.341990075332916E1  -3.220378876129593E1  -6.147248028121621  -1.240878393801821E2  -6.167495266923990  -1.538613421913890E2  -2.393381703179318E1  -6.334173754008990E1  
 1.497677261613692E11   -2.159141759003942E1  -6.618255497003776E1  -6.194420908533887  -1.490851662333153E2  -6.228490219152157  -1.792842489394132E2  -2.067909081363616E1  -6.424696135438082E1  
 1.497799511002445E11   -2.101050524452438E1  -9.472591711302495E1  -6.278752907310650  -1.740541917315450E2  -6.292433726260734   1.562149467314536E2  -1.877544635217856E1  -7.930832452342558E1  
 1.497921760391198E11   -2.223762421528725E1  -1.188422162249497E2  -6.337826171999073   1.617721486951119E2  -6.371131723390199   1.319624511628011E2  -1.838967696945186E1  -9.949171570240608E1  
 1.498044009779951E11   -2.477369068895640E1  -1.314897504384423E2  -6.332982689836185   1.376220817408281E2  -6.345141079821169   1.077106609900631E2  -1.968863716029183E1  -1.221854157745001E2  
 1.498166259168704E11   -2.850210770708726E1  -1.295288800491849E2  -6.212872755291103   1.131245043442106E2  -6.248274931056264   8.372300803123439E1  -2.307496234898605E1  -1.465246710565908E2  
 1.498288508557457E11   -2.973554435408256E1  -9.186433185210377E1  -6.144860053525753   8.796710259420715E1  -6.169576356801474   5.887058972972122E1  -3.210697179164116E1  -1.785700516520749E2  
 1.498410757946210E11   -2.452255828343946E1  -7.948665350389904E1  -6.132774650506651   6.261371092402239E1  -6.164448841403034   3.315217267738643E1  -3.102063846307354E1  -2.843826160100851  
 1.498533007334963E11   -2.095633637841824E1  -9.195505783080192E1  -6.202366867560911   3.742685351883472E1  -6.217217827737252   8.128538642593204  -2.228557268039700E1  -3.396222855442711E1  
 1.498655256723716E11   -1.914711601201548E1  -1.109601064102775E2  -6.291737617228187   1.263338063723685E1  -6.329481929122248  -1.701498948580629E1  -1.895740666566992E1  -6.106397983065004E1  
 1.498777506112470E11   -1.878104991623787E1  -1.312299575135314E2  -6.424611252449117  -1.147123443410637E1  -6.452342935942359  -4.095061717027236E1  -1.770879546580085E1  -8.806302565940277E1  
 1.498899755501223E11   -1.956956111992195E1  -1.473859393782998E2  -6.448084654008350  -3.528385651781948E1  -6.476594217289462  -6.452645916804821E1  -1.791544222205329E1  -1.163078007258297E2  
 1.499022004889976E11   -2.104814774900227E1  -1.595103326650684E2  -6.382876234102209  -5.929907875589331E1  -6.404514745148080  -8.896313948342591E1  -1.965763894704594E1  -1.468551013903021E2  
 1.499144254278729E11   -2.356902169812879E1  -1.644567240427280E2  -6.275296722766667  -8.364749482657726E1  -6.315313139642566  -1.136715612181399E2  -2.328292066875825E1   1.724936433473333E2  
 1.499266503667482E11   -2.585902951296117E1  -1.504567654148676E2  -6.230657965292544  -1.088204472292735E2  -6.261228709176618  -1.385384711762108E2  -2.735543160480952E1   9.669301007111065E1  
 1.499388753056235E11   -2.400724318316206E1  -1.311274229430806E2  -6.239627829013769  -1.341766948696938E2  -6.266655795110023  -1.636214900034819E2  -2.318592464091625E1   1.603752216202007E1  
 1.499511002444988E11   -2.089834992380152E1  -1.354560793483348E2  -6.329829875437745  -1.595285251617212E2  -6.358126559262159   1.716000504049929E2  -1.918820490150599E1  -2.719157824332359E1  
 1.499633251833741E11   -1.914613632288156E1  -1.502357165233054E2  -6.467484684557726   1.763350916347783E2  -6.489192460062896   1.465737827557981E2  -1.717432299343522E1  -5.966681714340502E1  
 1.499755501222494E11   -1.871340654738864E1  -1.674780022488981E2  -6.544563108942276   1.524353920649539E2  -6.559491055835114   1.228464183082883E2  -1.665686811104744E1  -8.971445270010547E1  
 1.499877750611247E11   -1.932930955299458E1   1.777645602260674E2  -6.505154591157599   1.285389384618820E2  -6.539904411224714   9.907743980545901E1  -1.736860192884992E1  -1.181890707341767E2  
 1.500000000000000E11   -2.083209333358406E1   1.626209048037207E2  -6.404370626314528   1.047887192347707E2  -6.431392135973995   7.489536676060172E1  -1.948833449217842E1  -1.497537078951209E2  
 1.500122249388753E11   -2.386497535575593E1   1.525051373248121E2  -6.297629584200745   7.970250815312818E1  -6.346799488577538   4.991208994781894E1  -2.395135926171584E1   1.667915885454869E2  
 1.500244498777506E11   -2.795322866724470E1   1.674036632184515E2  -6.248972222769581   5.484422345791762E1  -6.280269176171682   2.483188446683468E1  -2.827955446820785E1   7.697166136638589E1  
 1.500366748166259E11   -2.590331869262550E1  -1.609489095878470E2  -6.293748310558458   2.933140148542475E1  -6.322108912626929  -6.319781517636758E-1  -2.264310616411447E1  -9.158500977387982E-1  
 1.500488997555012E11   -2.190472908133797E1  -1.644825447158889E2  -6.465216576985516   4.382779042206651  -6.478214221714537  -2.555270409427456E1  -1.887175499461079E1  -4.036223916073993E1  
 1.500611246943765E11   -2.027894959847225E1   1.785752812603584E2  -6.612255299735675  -1.973156719892416E1  -6.614510027379720  -4.929670320788875E1  -1.739116652450926E1  -7.003412450083880E1  
 1.500733496332518E11   -1.993830977566548E1   1.618079061411247E2  -6.597965356236895  -4.323284320540591E1  -6.626591539713418  -7.316888924191912E1  -1.728219530373242E1  -9.646506402174863E1  
 1.500855745721271E11   -2.056551830652856E1   1.448101129510293E2  -6.541110050323773  -6.692627095276698E1  -6.526437171749515  -9.717719049157130E1  -1.840336796165421E1  -1.225696129785463E2  
 1.500977995110024E11   -2.245490855104616E1   1.265987653292869E2  -6.432966665637848  -9.169302014386480E1  -6.449425444580760  -1.215499001146725E2  -2.172333226663285E1  -1.492472136841689E2  
 1.501100244498778E11   -2.708428210105069E1   1.124293927272792E2  -6.343828679422819  -1.163903242040497E2  -6.357074989544330  -1.468260115802391E2  -3.092669414598105E1   1.779260587286433E2  
 1.501222493887531E11   -3.615655411861558E1   1.605835184926537E2  -6.320954992572378  -1.420786173970307E2  -6.333876323853892  -1.721959033933924E2  -2.906534151116970E1  -1.429361963460547E1  
 1.501344743276284E11   -2.646709116243274E1  -1.579770094994540E2  -6.441889365767365  -1.676366192806773E2  -6.461574676743564   1.626100961085348E2  -2.047750319547962E1  -4.558321357715661E1  
 1.501466992665037E11   -2.175939366570309E1  -1.756406517092583E2  -6.658788359058114   1.679990512526074E2  -6.672972014621842   1.381190590004973E2  -1.723744912184877E1  -7.368024356164119E1  
 1.501589242053790E11   -1.998622277573616E1   1.655020256012971E2  -6.755586003451244   1.443564715287695E2  -6.766731250848118   1.149436641190496E2  -1.604184827571748E1  -9.879808185387635E1  
 1.501711491442543E11   -1.894940382285155E1   1.468945827443548E2  -6.736145887581241   1.207657536645184E2  -6.738473479700140   9.099547552357070E1  -1.588772491818861E1  -1.227689978842256E2  
 1.501833740831296E11   -1.876591281804148E1   1.262535349069856E2  -6.664962058168710   9.723454999534945E1  -6.685415565985095   6.717336387742971E1  -1.676930904021178E1  -1.480206691895780E2  
 1.501955990220049E11   -1.967363535312336E1   1.036032154289479E2  -6.538195652727048   7.343636409125816E1  -6.537346729189069   4.257567112938548E1  -1.915761431732218E1  -1.748860599171223E2  
 1.502078239608802E11   -2.194339452806159E1   8.077930713466839E1  -6.404681312247196   4.828877392730324E1  -6.403306668315211   1.813001854113394E1  -2.402627544168480E1   1.542066662606189E2  
 1.502200488997555E11   -2.691068323950210E1   6.144823032503528E1  -6.332393312341460   2.320745426811872E1  -6.350785026732086  -7.361196812005374  -3.740407616599656E1   7.252955381500364E1  
 1.502322738386308E11   -3.719578139414383E1   8.458216268933541E1  -6.385704118790645  -2.501204978358090  -6.414639700238102  -3.269698423793292E1  -2.669398709240057E1  -5.700767067682360E1  
 1.502444987775061E11   -3.196504174952700E1   1.483751967764605E2  -6.510641059245685  -2.694293998437689E1  -6.541993555294279  -5.750862686839099E1  -2.180157560632407E1  -9.168306149642591E1  
 1.502567237163814E11   -2.676945969798681E1   1.454476109410032E2  -6.560784100035791  -5.091421007022056E1  -6.579550897720726  -8.143332866366852E1  -2.021785293615458E1  -1.191459706103725E2  
 1.502689486552567E11   -2.404065602941227E1   1.281781091314300E2  -6.543476894273159  -7.528715656860760E1  -6.569695859630693  -1.055433177457833E2  -2.044757488902707E1  -1.464343380427702E2  
 1.502811735941320E11   -2.329895276826726E1   1.048575388346288E2  -6.506803221725632  -9.891332251092079E1  -6.524907790323370  -1.298970035286814E2  -2.226476715779862E1  -1.770620732235961E2  
 1.502933985330073E11   -2.434636698016747E1   8.140085166396629E1  -6.455829131890991  -1.236709243630684E2  -6.456715773579942  -1.545462515385310E2  -2.629425216113925E1   1.429579553585018E2  
 1.503056234718826E11   -2.705143505872800E1   5.949997789498931E1  -6.384797191742528  -1.489134072106048E2  -6.398766210860304  -1.794622993826840E2  -3.111378200392227E1   5.563026951393525E1  
 1.503178484107579E11   -3.329541784175505E1   5.613568321700728E1  -6.423804797742786  -1.736688254025678E2  -6.465464923860655   1.556425806656908E2  -2.574757451248873E1  -2.606894170319473E1  
 1.503300733496332E11   -3.589394808739210E1   9.898496493096415E1  -6.550392390148908   1.615189361054464E2  -6.571368212346867   1.313364562028108E2  -2.201284073827449E1  -6.642654559911647E1  
 1.503422982885085E11   -3.237596440833917E1   1.174855615597406E2  -6.563450282474745   1.374233118674585E2  -6.582203998374641   1.075240517498115E2  -2.074906127286422E1  -9.490757732329590E1  
 1.503545232273839E11   -2.844784107037054E1   1.097217621566495E2  -6.526186438720298   1.132482004613955E2  -6.540244418456751   8.325221291420525E1  -2.088067318101256E1  -1.193563424690699E2  
 1.503667481662592E11   -2.636420742910176E1   8.617878323726671E1  -6.466286352387922   8.914989423658173E1  -6.483333320409061   5.857980836115584E1  -2.268566150639087E1  -1.407562960837585E2  
 1.503789731051345E11   -2.628145644553961E1   5.363904004627919E1  -6.385079843064039   6.457195759424111E1  -6.386686981419564   3.388934456403686E1  -2.718899951554995E1  -1.551915944433889E2  
 1.503911980440098E11   -2.736973025875010E1   1.188849176026026E1  -6.336740059172822   3.947849283339701E1  -6.354472236895476   8.562042798677517  -3.414546269234570E1  -1.029592251522481E2  
 1.504034229828851E11   -2.860840976525104E1  -4.477667585101082E1  -6.359667492427839   1.394557310863172E1  -6.377038439549275  -1.664347249030073E1  -2.515562376792000E1  -7.249510278338548E1  
 1.504156479217604E11   -2.773553855910901E1  -1.047622372798279E2  -6.484650894112742  -1.077758700362140E1  -6.490532435884478  -4.165142548926433E1  -2.038191015448397E1  -9.100334207606664E1  
 1.504278728606357E11   -2.530982985692212E1  -1.494091607983243E2  -6.593999178977180  -3.499900833253712E1  -6.593155492947109  -6.563311539024522E1  -1.825610060048774E1  -1.140155949946538E2  
 1.504400977995110E11   -2.303064891398233E1   1.767783031297775E2  -6.626617214682286  -5.905522025487169E1  -6.640154902361693  -8.966733997766202E1  -1.746794252840589E1  -1.375333865403092E2  
 1.504523227383863E11   -2.160083217864882E1   1.448922055718297E2  -6.635636997685856  -8.305947291822817E1  -6.629144007062314  -1.136646057722562E2  -1.772396280269724E1  -1.613096451646499E2  
 1.504645476772616E11   -2.118236408599672E1   1.157900438095553E2  -6.577051693616053  -1.073892231161617E2  -6.593921681426951  -1.377924663918972E2  -1.904525283208387E1   1.732592123756172E2  
 1.504767726161369E11   -2.185476602875040E1   8.791622752746321E1  -6.479884162719985  -1.312061888169843E2  -6.481720389535994  -1.624324215123281E2  -2.179751565810089E1   1.455391754526248E2  
 1.504889975550122E11   -2.381067013243024E1   6.246306741154939E1  -6.427832825012618  -1.562835639290691E2  -6.433763653063937   1.727147634622657E2  -2.723176720179009E1   1.100145257538015E2  
 1.505012224938875E11   -2.728427842470737E1   4.279057329082959E1  -6.452412279863384   1.785792356416594E2  -6.455362712003072   1.478546507746908E2  -3.795484462025105E1   1.598746797912567E1  
 1.505134474327628E11   -3.300308277892658E1   2.978571773867689E1  -6.477878987797174   1.541588019468660E2  -6.477081047643497   1.236874550106961E2  -2.961867602377387E1  -7.988820168623013E1  
 1.505256723716382E11   -4.071361817066791E1   9.684736746910100E1  -6.469006619706413   1.292726205388734E2  -6.472871060809580   9.928731647905559E1  -2.556461686650830E1  -1.097232786608844E2  
 1.505378973105135E11   -3.060184595437406E1   1.156213376940411E2  -6.459786600051480   1.046565799295762E2  -6.458461591714237   7.462983489452634E1  -2.401806871385001E1  -1.341288903070327E2  
 1.505501222493888E11   -2.648383103996845E1   9.217303370718993E1  -6.447115792921438   7.998489296730502E1  -6.470004437060047   5.014425945987775E1  -2.448950631265783E1  -1.558191888974209E2  
 1.505623471882641E11   -2.505758635182787E1   6.410505157933507E1  -6.446482886150685   5.519612925220822E1  -6.462862835241712   2.553849757870269E1  -2.672902779228377E1  -1.745027697438969E2  
 1.505745721271394E11   -2.518524908062511E1   3.501128867286658E1  -6.460444089673191   3.054028572454174E1  -6.477175576597955   6.829332207909152E-1  -3.212074265068604E1  -1.739585724732250E2  
 1.505867970660147E11   -2.635487575704632E1   5.272612659719473  -6.520712530318897   5.708352510347886  -6.533748715959812  -2.381779273725617E1  -3.219266726652846E1  -1.246985962523824E2  
 1.505990220048900E11   -2.801233158087750E1  -3.090533065169838E1  -6.571170337670411  -1.834494167338138E1  -6.580226866833814  -4.805303230163499E1  -2.703496361746138E1  -1.236782714380404E2  
 1.506112469437653E11   -3.020410790058179E1  -8.406781396538797E1  -6.537736608156165  -4.268651349176960E1  -6.546077333365856  -7.186339385742301E1  -2.478138115759245E1  -1.368861532186325E2  
 1.506234718826406E11   -3.080420698891646E1  -1.527306997421077E2  -6.494478516623225  -6.684856529695254E1  -6.493413006348958  -9.644627755186386E1  -2.368207357846103E1  -1.510845959675224E2  
 1.506356968215159E11   -2.860937874930978E1   1.463157201890994E2  -6.468358445843140  -9.133336838594708E1  -6.460490924584466  -1.210235117605168E2  -2.344623157857376E1  -1.672188563345664E2  
 1.506479217603912E11   -2.677680884491875E1   9.772155538551664E1  -6.435422348317485  -1.160161397228154E2  -6.433709800143968  -1.459439315234135E2  -2.405789259553757E1   1.768084385221877E2  
 1.506601466992665E11   -2.577319394436505E1   5.559219226348699E1  -6.418128507009560  -1.408057897229509E2  -6.427390952842124  -1.704606602776414E2  -2.582705498566964E1   1.640699334922881E2  
 1.506723716381418E11   -2.528515362916560E1   1.559339671789905E1  -6.450820651189818  -1.654599315436425E2  -6.460577153938136   1.642306428351796E2  -2.824786279613159E1   1.629482617345433E2  
 1.506845965770171E11   -2.480230831194437E1  -2.522389382743711E1  -6.509850375487329   1.702831368200181E2  -6.493948403470800   1.399576848350751E2  -2.821425747578300E1   1.707727244254722E2  
 1.506968215158924E11   -2.394979715811083E1  -6.802509332269666E1  -6.501624629494631   1.455742136958758E2  -6.493127830790504   1.158660629471019E2  -2.692799525270650E1   1.665163247317944E2  
 1.507090464547677E11   -2.341427645194565E1  -1.085733598664331E2  -6.466761533023905   1.212188561163852E2  -6.481748026959514   9.156232656072271E1  -2.591569356556297E1   1.527555979891478E2  
 1.507212713936430E11   -2.304403610705693E1  -1.453064235774287E2  -6.480724335403884   9.699577003725142E1  -6.470115585656180   6.680351214343997E1  -2.536736507490757E1   1.324380546376528E2  
 1.507334963325183E11   -2.309092520925223E1  -1.772052109371217E2  -6.465048102917454   7.217439744135484E1  -6.475775045156632   4.219396722199484E1  -2.510705644922738E1   1.069861672140017E2  
 1.507457212713937E11   -2.381660922717783E1   1.554875731149068E2  -6.459428535983962   4.782329924197189E1  -6.470425712171728   1.733296187800189E1  -2.509485975983705E1   7.575891765665023E1  
 1.507579462102690E11   -2.518716352321236E1   1.340347829703587E2  -6.480524106144583   2.284702613778350E1  -6.488465356747732  -6.755715128829473  -2.541890936003968E1   3.737270132001203E1  
 1.507701711491443E11   -2.736306236446850E1   1.183884382746307E2  -6.499893685081354  -1.322332927898183  -6.512197012285760  -3.130681183548648E1  -2.583821901100111E1  -1.552961368901278  
 1.507823960880196E11   -3.030065968735396E1   1.203086559211031E2  -6.460961564344704  -2.550812558592422E1  -6.472551028341176  -5.529946162014005E1  -2.593724151952120E1  -3.574099318451884E1  
 1.507946210268949E11   -2.947701777195864E1   1.393389932347539E2  -6.404910667642620  -5.011130900545722E1  -6.417168283275731  -7.957600069321904E1  -2.568946625917567E1  -6.749165849897720E1  
 1.508068459657702E11   -2.635172431236962E1   1.360427590404336E2  -6.366091098220661  -7.482287661965151E1  -6.396109660315756  -1.044524331637932E2  -2.573869248286038E1  -9.846024420955669E1  
 1.508190709046455E11   -2.436182122010288E1   1.200296497706848E2  -6.362413437602156  -9.947289094615125E1  -6.364173439344407  -1.294687734968049E2  -2.674119578796811E1  -1.286402644695907E2  
 1.508312958435208E11   -2.377243781774996E1   9.991120528947040E1  -6.366678041093195  -1.244228413498518E2  -6.379542180667418  -1.539546980980384E2  -2.899023938799600E1  -1.581243457911214E2  
 1.508435207823961E11   -2.417552018772083E1   8.032176820440326E1  -6.390712929615854  -1.490471279674651E2  -6.409969334606543  -1.786705442262154E2  -3.373460308105358E1   1.716809012083119E2  
 1.508557457212714E11   -2.539851606644224E1   6.223925029116236E1  -6.428062761878649  -1.732934367716619E2  -6.459637181829352   1.568160664751950E2  -4.324616016985336E1   1.295393329215352E2  
 1.508679706601467E11   -2.817586745145673E1   4.479554255320696E1  -6.385519161636164   1.623760520696482E2  -6.411523925198627   1.327172682234187E2  -3.931123631774489E1  -1.208238158173575  
 1.508801955990220E11   -3.388537907378940E1   4.078286180201453E1  -6.331497115417801   1.379850299390248E2  -6.353209401157865   1.081164496707019E2  -3.141799608094568E1  -3.703085827646525E1  
 1.508924205378973E11   -3.663581611981775E1   8.988681084135948E1  -6.280684127060861   1.131630989708434E2  -6.317247065254517   8.340459886718382E1  -2.779487496508371E1  -6.520458314233240E1  
 1.509046454767726E11   -3.095494585897086E1   9.799616348446148E1  -6.266158135550962   8.808506506852534E1  -6.308846921151327   5.837716854878170E1  -2.611551337553573E1  -8.894084933451116E1  
 1.509168704156479E11   -2.844618078718036E1   7.958063163179358E1  -6.284640915152216   6.303938914092259E1  -6.329537959065575   3.347081789937849E1  -2.596837334711650E1  -1.081060943880763E2  
 1.509290953545232E11   -2.805803339654201E1   5.539623680736077E1  -6.325939529186731   3.795940096483439E1  -6.362035182133718   8.394198872576185  -2.648958244294334E1  -1.191362548555837E2  
 1.509413202933985E11   -2.939948629431067E1   2.509073917742383E1  -6.396374124893486   1.340854027084866E1  -6.439988612460112  -1.594141438432374E1  -2.644273125964379E1  -1.228166242124084E2  
 1.509535452322738E11   -3.226561486747222E1  -2.477843080144928E1  -6.425136731919305  -1.065210409805182E1  -6.460027787067611  -4.016265120689809E1  -2.596283167890006E1  -1.310249354603839E2  
 1.509657701711491E11   -3.204418352797821E1  -1.077012420942563E2  -6.409535878807956  -3.514508424308210E1  -6.429760429081494  -6.464962372654902E1  -2.570050486330722E1  -1.381277680864740E2  
 1.509779951100244E11   -2.736286220673679E1  -1.649812700421441E2  -6.382323098471516  -5.988825411228968E1  -6.425919965835095  -8.927145427172981E1  -2.504977013321516E1  -1.450859271290566E2  
 1.509902200488998E11   -2.398605297592783E1   1.594480038118252E2  -6.406349201878600  -8.449193140064067E1  -6.429221912525038  -1.140796989363995E2  -2.419335021666975E1  -1.572855165234313E2  
 1.510024449877751E11   -2.214427394330852E1   1.305120596057672E2  -6.443630956153540  -1.091104121745839E2  -6.457486390147990  -1.387642093391655E2  -2.384997589276005E1  -1.746176585976938E2  
 1.510146699266504E11   -2.150452012151833E1   1.059728221357692E2  -6.496792606350044  -1.340007170337061E2  -6.513563927915089  -1.635661594355355E2  -2.458150112714257E1   1.648726832257907E2  
 1.510268948655257E11   -2.168418385448460E1   8.448926266929088E1  -6.571707622375133  -1.581987192360406E2  -6.598161939447147   1.719254037434027E2  -2.657903385914299E1   1.451596920443979E2  
 1.510391198044010E11   -2.285951049359414E1   6.300410370151097E1  -6.609353192069834   1.777653359904662E2  -6.621717818368627   1.481219389191016E2  -2.931731480703814E1   1.263409405923926E2  
 1.510513447432763E11   -2.585656174575803E1   4.540936797655535E1  -6.553271334946292   1.538738105244860E2  -6.575497764964633   1.245705162158870E2  -3.377026460437366E1   9.744104211582908E1  
 1.510635696821516E11   -3.186550699720206E1   4.729740114655188E1  -6.463880987938445   1.293312767356610E2  -6.491070910773223   9.995323902870278E1  -4.331942347787039E1   8.037053578075124  
 1.510757946210269E11   -3.224815838294641E1   1.059964257395262E2  -6.403518594598530   1.044937624851490E2  -6.420280843447012   7.509465669334054E1  -3.480892761108849E1  -9.036073834743569E1  
 1.510880195599022E11   -2.650541547408728E1   1.107338781017867E2  -6.381724745315995   7.952084543219668E1  -6.405309646185955   4.998089039403986E1  -2.992145686195959E1  -1.283896672938168E2  
 1.511002444987775E11   -2.331726394814482E1   9.748205320168256E1  -6.422966130759271   5.446932295055514E1  -6.453880821588667   2.498928784287056E1  -2.836390996359405E1  -1.574430003618016E2  
 1.511124694376528E11   -2.175420786864662E1   8.104293138366248E1  -6.518266094028138   3.029478411186560E1  -6.533866932060343   4.674443219729272E-1  -2.860515054643597E1   1.779473635118915E2  
 1.511246943765281E11   -2.159365460588354E1   6.265520084152184E1  -6.555997307656775   6.412753030579511  -6.570611105210293  -2.395606628244211E1  -2.970140187755978E1   1.502910481315215E2  
 1.511369193154034E11   -2.286883684923549E1   4.775164971591812E1  -6.505399773080292  -1.767999312319497E1  -6.519968640070214  -4.776694493465155E1  -3.319557479867558E1   1.055155307899014E2  
 1.511491442542787E11   -2.510802484811405E1   4.377580511060330E1  -6.422871970806863  -4.232284589294797E1  -6.449169764517765  -7.240870750764690E1  -3.557181956168599E1   4.936982629564357  
 1.511613691931540E11   -2.659944173973737E1   5.768520058959336E1  -6.369258975434852  -6.708501507464207E1  -6.410019875298232  -9.724377420297439E1  -2.853710587841314E1  -6.578397016800557E1  
 1.511735941320293E11   -2.453711057789343E1   6.959790580353733E1  -6.357961208332018  -9.219756315693911E1  -6.376412969731828  -1.223050861527617E2  -2.405843916811135E1  -1.038814541108519E2  
 1.511858190709046E11   -2.186652669006197E1   6.395945129756964E1  -6.417599085542862  -1.174056088347766E2  -6.414324678456285  -1.472764897227099E2  -2.149794724483426E1  -1.352311563011999E2  
 1.511980440097799E11   -2.010353111737761E1   5.031218241070143E1  -6.521332931264608  -1.419655486932065E2  -6.531169353250765  -1.720441334722934E2  -2.025281961207999E1  -1.629496317463347E2  
 1.512102689486552E11   -1.931723282551332E1   3.249555401700734E1  -6.602693780328425  -1.663884304909555E2  -6.639220065741125   1.639912059287893E2  -1.974628179839852E1   1.711943105064900E2  
 1.512224938875306E11   -1.955348350956960E1   1.187591564386555E1  -6.623947850899993   1.703632184669977E2  -6.640455823289369   1.398507264855405E2  -1.989722588440168E1   1.447232997505194E2  
 1.512347188264059E11   -2.101864562194449E1  -1.004677229691678E1  -6.554008105122787   1.459666446123258E2  -6.591959452202715   1.156933050113966E2  -2.118538447980289E1   1.182967524427333E2  
 1.512469437652812E11   -2.423886166150994E1  -3.382392735925371E1  -6.460081528952771   1.219031997944591E2  -6.494024353306053   9.137369370862706E1  -2.381539745823137E1   9.366029180862860E1  
 1.512591687041565E11   -3.182041994290933E1  -6.475664271015559E1  -6.396010589593340   9.700874276890355E1  -6.425776896732534   6.619476100880171E1  -2.910783461681854E1   7.517520200902200E1  
 1.512713936430318E11   -3.619243294059601E1   1.349077884277285E2  -6.373302027251823   7.175807419069218E1  -6.404045999538410   4.102973165269865E1  -3.738694344322909E1   1.162981779684258E2  
 1.512836185819071E11   -2.583962156888074E1   9.487177132105451E1  -6.453231283484864   4.677372234131473E1  -6.478323807771555   1.559775520739943E1  -2.973502866793221E1   1.538626285921387E2  
 1.512958435207824E11   -2.169047883387962E1   6.841820246832401E1  -6.548812431833444   2.225779083657758E1  -6.580711741653742  -8.513593932684653  -2.483625250942469E1   1.368732421873890E2  
 1.513080684596577E11   -1.993652799347691E1   4.539499874901212E1  -6.619809623420681  -2.083869535544185  -6.650767567037175  -3.309968133045700E1  -2.222365639986591E1   1.100978015158626E2  
 1.513202933985330E11   -1.953268900153418E1   2.448099329220124E1  -6.626771332126697  -2.597036825248736E1  -6.668427308340682  -5.696201121160966E1  -2.100703554518707E1   7.971004763365379E1  
 1.513325183374083E11   -2.007713529839303E1   6.451797756851907  -6.594388626520245  -4.981226692233815E1  -6.646841692126001  -8.126329502400053E1  -2.086155510987845E1   4.584719455427443E1  
 1.513447432762836E11   -2.150179261201741E1  -8.524532051650844  -6.537288650776028  -7.423977157545610E1  -6.594198793432201  -1.055273527358246E2  -2.133083345233072E1   9.087020493698066  
 1.513569682151589E11   -2.402702279794666E1  -1.792541425544971E1  -6.488659638494307  -9.881446175957535E1  -6.519145291828695  -1.302019915109480E2  -2.210026298051344E1  -3.224462738932360E1  
 1.513691931540342E11   -2.703387499118234E1  -1.131533045626433E1  -6.471551214400725  -1.236467465241581E2  -6.515529649510110  -1.551373213817684E2  -2.275618772612032E1  -7.871654678588236E1  
 1.513814180929096E11   -2.679333436056262E1   1.006976621001314E1  -6.509567258392735  -1.482627772124172E2  -6.538652380439116  -1.798123568764132E2  -2.276871276338052E1  -1.270927007345092E2  
 1.513936430317849E11   -2.420041306353961E1   1.134237334019262E1  -6.530428721178001  -1.725823435702214E2  -6.577390594943507   1.559797455749456E2  -2.238851917218207E1  -1.733610822213140E2  
 1.514058679706602E11   -2.278382782011545E1   2.207402444287421E-1  -6.554853988028998   1.628376499424587E2  -6.584299493978278   1.314712311467513E2  -2.225734237322043E1   1.436924677169493E2  
 1.514180929095355E11   -2.246181231637036E1  -1.427429466298017E1  -6.531300100778165   1.384119887350368E2  -6.574604469495126   1.069887376101945E2  -2.269613174195129E1   1.036282934087734E2  
 1.514303178484108E11   -2.345414079437520E1  -2.847942621511823E1  -6.504159977229894   1.142001196291403E2  -6.539255791751995   8.238541106470146E1  -2.390671223537243E1   6.164235940899543E1  
 1.514425427872861E11   -2.585199097300082E1  -4.048683076968032E1  -6.443312912988363   8.989293669212687E1  -6.497631340251790   5.764962603113197E1  -2.591690470309206E1   1.321620989109992E1  
 1.514547677261614E11   -3.035265693030111E1  -3.596051513272861E1  -6.401978376567215   6.498100909467594E1  -6.461634400648880   3.276416340467954E1  -2.727078934503198E1  -5.023282016310774E1  
 1.514669926650367E11   -3.041993377807590E1   6.000339174491671  -6.442076148812341   3.977990800473639E1  -6.474842350189863   7.806280334709216  -2.549968262100472E1  -1.157498538911535E2  
 1.514792176039120E11   -2.536700674351351E1   1.025157457114796E1  -6.477599130315390   1.509215480516591E1  -6.530343245988251  -1.695861302373510E1  -2.253845491699248E1  -1.648255242108031E2  
 1.514914425427873E11   -2.286205599227517E1  -5.511890176113099  -6.523685089900839  -9.177469284597621  -6.567726349767256  -4.147667537021215E1  -2.047926915140314E1   1.567914169141477E2  
 1.515036674816626E11   -2.162971679751671E1  -2.538157681173752E1  -6.578282657895096  -3.359857591823612E1  -6.621676322871703  -6.555761129499747E1  -1.945713588457971E1   1.237437975443235E2  
 1.515158924205379E11   -2.169888969484164E1  -4.836817318929285E1  -6.585178047576451  -5.825723514317319E1  -6.639227675104804  -9.000593290361474E1  -1.935305671273424E1   9.350748612021512E1  
 1.515281173594132E11   -2.280467814985162E1  -7.525144642473512E1  -6.554528231145236  -8.219789570846957E1  -6.596298628268168  -1.141558984329648E2  -2.024944773160654E1   6.492020196474061E1  
 1.515403422982885E11   -2.532451227396975E1  -1.099481106780126E2  -6.516934994806007  -1.069950659917510E2  -6.554414293111965  -1.387445838000975E2  -2.260752824573841E1   3.712307686213276E1  
 1.515525672371638E11   -2.890803241844771E1  -1.684831095002658E2  -6.479979643411944  -1.315879505612339E2  -6.538716671625043  -1.636025400123262E2  -2.787894760429920E1   1.030343643942871E1  
 1.515647921760391E11   -2.838391536422666E1   1.107986085930512E2  -6.474958828199354  -1.562867429397093E2  -6.529277770744504   1.717771967832628E2  -4.992770824983971E1   7.528343241081906E1  
 1.515770171149144E11   -2.467279897384105E1   5.989725530757636E1  -6.495889909240799   1.791107390245530E2  -6.545963712874196   1.472021756320864E2  -2.777123797079366E1   1.250661204337180E2  
 1.515892420537897E11   -2.232646389962251E1   2.589143812598379E1  -6.561043364751238   1.540936957129661E2  -6.594842673882664   1.227354007691449E2  -2.247657433614414E1   1.000689343869755E2  
 1.516014669926650E11   -2.138387419124919E1  -2.412959959107227  -6.615076511231766   1.300069677135249E2  -6.654240259354200   9.818650203640586E1  -2.011305934493499E1   7.484060253514330E1  
 1.516136919315403E11   -2.156870439204074E1  -2.913127985570383E1  -6.623368351986361   1.060204273752416E2  -6.669674183583840   7.441480462196969E1  -1.925273340037877E1   4.936743948022667E1  
 1.516259168704157E11   -2.301311070933095E1  -5.702670555292190E1  -6.593700985512218   8.160473604651905E1  -6.619215184058344   5.018268846941646E1  -1.962472633687412E1   2.413616441663761E1  
 1.516381418092910E11   -2.675995730103477E1  -8.864489750573920E1  -6.524742543927680   5.759088753802362E1  -6.548686253987525   2.574983283270113E1  -2.150912580872430E1  -1.501533664459875  
 1.516503667481663E11   -3.618048776098671E1  -1.482434061267411E2  -6.416370474357059   3.267314136489683E1  -6.455409344360822   1.464324435141934  -2.586598510164495E1  -2.573269469437484E1  
 1.516625916870416E11   -3.121217884603025E1   7.689825130582844E1  -6.365508704082669   7.841612074479403  -6.398267059581398  -2.350525087077674E1  -4.113636748448377E1  -1.856246342983394E1  
 1.516748166259169E11   -2.462573149535470E1   3.906343537756255E1  -6.376164227988821  -1.724441541590017E1  -6.396285375992067  -4.895570915906176E1  -2.836615274216280E1   8.595631236192165E1  
 1.516870415647922E11   -2.165998918481442E1   1.138508281537381E1  -6.433763009312719  -4.227437898810472E1  -6.466795341712772  -7.384746754204790E1  -2.204993791696267E1   6.398234728769454E1  
 1.516992665036675E11   -2.033520880774336E1  -1.470621643436165E1  -6.516900980873985  -6.662451365024000E1  -6.540001965386665  -9.847946187243831E1  -1.923687137998329E1   3.912633522745720E1  
 1.517114914425428E11   -2.017958102242760E1  -4.008897846382658E1  -6.570604921086070  -9.109886030695364E1  -6.591873972514841  -1.226788008020539E2  -1.797878006789180E1   1.293460312268888E1  
 1.517237163814181E11   -2.124817771932302E1  -6.529379706460503E1  -6.568943535052589  -1.155843193722081E2  -6.604091551576981  -1.464320202832800E2  -1.774087398986131E1  -1.387965227418207E1  
 1.517359413202934E11   -2.375209685302755E1  -8.736978097941332E1  -6.539573892585543  -1.393316980954469E2  -6.575463125685765  -1.703525438349531E2  -1.864007638426940E1  -4.299533803753384E1  
 1.517481662591687E11   -2.796110355568631E1  -1.028542902012916E2  -6.453035781120808  -1.639969580027257E2  -6.495220851204660   1.648365874600035E2  -2.073605370292835E1  -7.573000000512135E1  
 1.517603911980440E11   -3.510953082759966E1  -1.014190858083695E2  -6.381017326945235   1.714263518718586E2  -6.431342069285536   1.401151031841115E2  -2.413603520580751E1  -1.173982116774326E2  
 1.517726161369193E11   -3.522965244070910E1  -3.768699531855418E1  -6.360790794016950   1.462477527255945E2  -6.390503707227887   1.153073813712436E2  -2.792104297743656E1   1.781199817173316E2  
 1.517848410757946E11   -2.959153461694274E1  -4.172349398281168E1  -6.396579893742882   1.213031762460786E2  -6.423747033769097   9.016538299937643E1  -2.667496182371431E1   1.060701849844165E2  
 1.517970660146699E11   -2.752412308345136E1  -6.865712290972755E1  -6.446293209242784   9.655852346467660E1  -6.472297283332478   6.565331705398853E1  -2.410132484753514E1   6.113879870533914E1  
 1.518092909535452E11   -2.749116705935742E1  -1.060105170450496E2  -6.477679051016454   7.174322670007153E1  -6.514646196658203   4.092122545738296E1  -2.295795070884435E1   2.922957208325185E1  
 1.518215158924205E11   -2.849431838502460E1  -1.558417977276047E2  -6.496299122414512   4.761463370242282E1  -6.525602191993218   1.672014678546577E1  -2.383594831098225E1   3.746003899145235  
 1.518337408312958E11   -2.824136829902524E1   1.475063037615345E2  -6.447134939285300   2.340823753191538E1  -6.481861704113831  -7.626575016334943  -2.686738996522859E1  -1.038634511815409E1  
 1.518459657701711E11   -2.547206445707270E1   1.006184450266494E2  -6.407787185675825  -1.883902828546316  -6.435359709350556  -3.235335033099167E1  -3.087401624020274E1   9.513027534544653  
 1.518581907090465E11   -2.297835172104632E1   6.344712625823136E1  -6.425036082422665  -2.685401421626361E1  -6.451640142397754  -5.763192152150219E1  -2.692395199866061E1   4.008211910133552E1  
 1.518704156479218E11   -2.134134210115762E1   3.243589660493312E1  -6.493481511556354  -5.143503860689804E1  -6.537260135133948  -8.236853525917266E1  -2.231876416449263E1   3.038379556083690E1  
 1.518826405867971E11   -2.078231745877305E1   4.888367404127061  -6.599284781176657  -7.600444167777089E1  -6.618736471567003  -1.067104659257102E2  -1.970676548248988E1   1.070478891138785E1  
 1.518948655256724E11   -2.156517812457397E1  -2.031988715115790E1  -6.677516335709326  -1.001934828619274E2  -6.709582482705724  -1.308729919804900E2  -1.856095126606103E1  -1.338127834862952E1  
 1.519070904645477E11   -2.404208375895959E1  -3.705930927290736E1  -6.689918458535134  -1.239395288995894E2  -6.719096936574237  -1.543855035475217E2  -1.872767072571471E1  -3.991958781958216E1  
 1.519193154034230E11   -2.710128362180828E1  -4.367408226223857E1  -6.581805285292131  -1.478765480937170E2  -6.624198988518130  -1.785619218321211E2  -2.029492256759600E1  -6.875800938495375E1  
 1.519315403422983E11   -3.067841881136008E1  -2.620076864620226E1  -6.506790169304927  -1.724376581327836E2  -6.515395820195910   1.563675653436143E2  -2.368962100826547E1  -1.047618868278138E2  
 1.519437652811736E11   -2.795795875327958E1   4.861719784002649  -6.459620814877201   1.623700523084528E2  -6.476583264793313   1.314368054038727E2  -2.944757697228060E1  -1.720068445404361E2  
 1.519559902200489E11   -2.352697417481741E1   1.445006440051494  -6.501917480342199   1.372128472241208E2  -6.509852519005024   1.063791171624823E2  -2.617773653134788E1   9.175959561390975E1  
 1.519682151589242E11   -2.099526836450493E1  -1.516737790243648E1  -6.577049571476159   1.125318708261884E2  -6.594794807233162   8.162889908326014E1  -2.122926863578353E1   4.653968126172374E1  
 1.519804400977995E11   -2.000076026651725E1  -3.537908263958380E1  -6.683347844428393   8.836579518445112E1  -6.699876900130236   5.753691437186240E1  -1.855771132282456E1   1.379464970943267E1  
 1.519926650366748E11   -2.027970551026425E1  -5.529032371306136E1  -6.740644686501824   6.458369300877691E1  -6.747812612618437   3.345621547388871E1  -1.749420801632200E1  -1.525048638310978E1  
 1.520048899755501E11   -2.135217457024251E1  -7.262238693012168E1  -6.689342302988195   4.082086997399671E1  -6.707705534946502   9.792225459892800  -1.757229523881698E1  -4.341175460896653E1  
 1.520171149144254E11   -2.341556324178416E1  -8.965883254995842E1  -6.561145180950239   1.670885033505462E1  -6.588740360853072  -1.437766068676501E1  -1.899432470552822E1  -7.207597568221466E1  
 1.520293398533007E11   -2.782598969879850E1  -1.012880943019183E2  -6.454448455412154  -7.707165374245570  -6.471342659762517  -3.945020532606173E1  -2.231865613201616E1  -1.040759679404702E2  
 1.520415647921760E11   -3.483493254047611E1  -6.874395903966119E1  -6.385078226838214  -3.267324522830466E1  -6.402402969623798  -6.440178308391626E1  -3.003811593090905E1  -1.525816552384008E2  
 1.520537897310513E11   -2.880825129041498E1  -2.635103788964662E1  -6.387424660003499  -5.790934190547754E1  -6.428968819416816  -8.975201636508025E1  -3.009007503869825E1   6.830945231146360E1  
 1.520660146699266E11   -2.431334001481608E1  -3.864955824020617E1  -6.451673050535054  -8.298698441506359E1  -6.491491941909258  -1.147275909324550E2  -2.265316418799107E1   1.935658567375644E1  
 1.520782396088019E11   -2.256970406053158E1  -5.884637769910769E1  -6.561284600352999  -1.073785701683338E2  -6.595285842726815  -1.391193123443828E2  -1.953436777869741E1  -1.296560714437424E1  
 1.520904645476773E11   -2.249429634596135E1  -7.999682155649118E1  -6.571761309801790  -1.310534429373256E2  -6.610033548337417  -1.631447617774315E2  -1.832380726006000E1  -4.261036829493359E1  
 1.521026894865526E11   -2.331886434364057E1  -9.942266850795998E1  -6.529156746203411  -1.549256756961623E2  -6.574263486357108   1.726075817562670E2  -1.840632704685777E1  -7.212845021284129E1  
 1.521149144254279E11   -2.551315181152180E1  -1.209015437004916E2  -6.463890702288986  -1.796581544843068E2  -6.495286867103213   1.485179951009720E2  -1.970586381376190E1  -1.042362064416506E2  
 1.521271393643032E11   -3.013651015562637E1  -1.436458100028871E2  -6.395949047345154   1.554099974207658E2  -6.440477269021670   1.238961464349956E2  -2.249621917823297E1  -1.430225470773567E2  
 1.521393643031785E11   -4.388253480739279E1  -1.551022299175463E2  -6.374918363681561   1.305701182458424E2  -6.423479373833720   9.839567230142583E1  -2.663568821865635E1   1.579081801974112E2  
 1.521515892420538E11   -3.529482143518050E1  -2.395427769757876E1  -6.420080822793551   1.053451735928827E2  -6.459183836022067   7.367367757113772E1  -2.646016600104535E1   7.560787979325949E1  
 1.521638141809291E11   -3.007288432524836E1  -4.587362643812574E1  -6.498707718753862   8.089845318888462E1  -6.554871222204092   4.923080466007843E1  -2.306644654111598E1   1.984321295806248E1  
 1.521760391198044E11   -2.928087587048836E1  -6.444688838588431E1  -6.530776421179264   5.695572826354196E1  -6.575119710683667   2.499171340137438E1  -2.118081804932969E1  -1.840639129425249E1  
 1.521882640586797E11   -2.978392251378573E1  -8.117769414713904E1  -6.477457796666623   3.290870762223479E1  -6.540580298149076   6.192349277886755E-1  -2.066867568697369E1  -5.203033476644118E1  
 1.522004889975550E11   -3.302504410249603E1  -9.989036125223950E1  -6.414179029895276   8.622446492441373  -6.462487724405807  -2.374651594807128E1  -2.152307356083339E1  -8.673198741481352E1  
 1.522127139364303E11   -4.513594105054796E1  -8.622694037702634E1  -6.352233357823336  -1.615106966494325E1  -6.407924555992204  -4.876837893155785E1  -2.396520667529699E1  -1.279848633023248E2  
 1.522249388753056E11   -3.455845867176711E1   1.257396038806114E1  -6.308789397762801  -4.090732738860172E1  -6.373792378088183  -7.349494620590799E1  -2.743490910470151E1   1.699951691604627E2  
 1.522371638141809E11   -2.780773973952345E1  -6.867022147762468  -6.321990145302301  -6.660919010720497E1  -6.378430043451661  -9.877297563466622E1  -2.655821638261060E1   8.876633563646642E1  
 1.522493887530562E11   -2.495529825632776E1  -3.110628223121796E1  -6.423531950309762  -9.089254179003106E1  -6.472675816204519  -1.238571240959784E2  -2.313521884649379E1   3.375851434648311E1  
 1.522616136919316E11   -2.443684582500999E1  -5.398909844458228E1  -6.509978698533069  -1.152581527084045E2  -6.571131089658842  -1.481801550159164E2  -2.127328931984916E1  -6.360059387975391  
 1.522738386308069E11   -2.524717749882341E1  -7.080995545536614E1  -6.510196487428087  -1.394864102133052E2  -6.571448011341808  -1.720700573134769E2  -2.088130128247072E1  -4.156236706022433E1  
 1.522860635696822E11   -2.719858500218854E1  -8.467075262733810E1  -6.436973336792257  -1.635539223768430E2  -6.489801705313452   1.638304859588588E2  -2.179572610291897E1  -7.837627158275905E1  
 1.522982885085575E11   -3.104527395313374E1  -8.532967040978845E1  -6.376238754896007   1.719121324003417E2  -6.428399535397730   1.389280054644288E2  -2.409414277480928E1  -1.261472763290786E2  
 1.523105134474328E11   -3.265844892288106E1  -4.393945242389202E1  -6.350660994122778   1.467259552196555E2  -6.410780003316975   1.135420375122039E2  -2.563750623248950E1   1.629981600360267E2  
 1.523227383863081E11   -2.696819277607053E1  -3.325945011554050E1  -6.377884043846688   1.213527538683855E2  -6.439541647693253   8.851550292566688E1  -2.256988200176188E1   9.556702113493003E1  
 1.523349633251834E11   -2.321202286224351E1  -4.779799651266884E1  -6.502841154924881   9.625456858504781E1  -6.558986261963555   6.402238267337101E1  -1.925134988810482E1   5.034884524256695E1  
 1.523471882640587E11   -2.145089158832139E1  -6.946069216856685E1  -6.644902181228449   7.188515084631504E1  -6.686761784109187   3.967015575320129E1  -1.731727123222427E1   1.529323868890701E1  
 1.523594132029340E11   -2.085617220983563E1  -9.112603569743506E1  -6.687242498907895   4.812577001513223E1  -6.733157879372852   1.610764233983479E1  -1.652319972522530E1  -1.463693809537743E1  
 1.523716381418093E11   -2.087419994522198E1  -1.145885696001637E2  -6.650684651495351   2.456991758829822E1  -6.689753071271890  -7.875131276786649  -1.660646746125813E1  -4.295407586547056E1  
 1.523838630806846E11   -2.189240450283206E1  -1.419774432012925E2  -6.585012330212147   4.604529211176592E-1  -6.624658335513848  -3.226484144833074E1  -1.777568763491204E1  -7.154059612021202E1  
 1.523960880195599E11   -2.370337311986469E1  -1.741590518363465E2  -6.470816073538480  -2.386724837028680E1  -6.497560129070827  -5.653857995875265E1  -2.044019067588007E1  -1.017336853044072E2  
 1.524083129584352E11   -2.689018336283975E1   1.450611075578541E2  -6.390898288020198  -4.906002950471737E1  -6.399675567920320  -8.154272537305080E1  -2.595230270415047E1  -1.378952645464385E2  
 1.524205378973105E11   -2.965671317469489E1   8.715298562716808E1  -6.364722324834383  -7.407622601953351E1  -6.391689077040378  -1.067732840913866E2  -3.697102762642044E1   1.256364647652082E2  
 1.524327628361858E11   -2.994579493278227E1   2.891380043414127E1  -6.431919961186789  -9.907609618284813E1  -6.451283634235599  -1.319079854920560E2  -2.803139156311422E1   2.132143565066827E1  
 1.524449877750611E11   -2.906862788103293E1  -1.030973755691979E1  -6.465532152867266  -1.235340909695319E2  -6.488211168087032  -1.562235349111430E2  -2.422749160021543E1  -1.305623934634332E1  
 1.524572127139364E11   -2.937383262166608E1  -3.762089887587527E1  -6.452770530980032  -1.479572546121990E2  -6.469116964950822   1.794225682148381E2  -2.354277365544322E1  -4.264200886636046E1  
 1.524694376528117E11   -3.183999313454424E1  -5.206247310328430E1  -6.434398870738279  -1.728713465045779E2  -6.428023576325639   1.547465942540792E2  -2.546450060871695E1  -7.382163694139689E1  
 1.524816625916870E11   -3.513784679430076E1  -2.063339748119111E1  -6.390581719558222   1.622094342447374E2  -6.406186392663589   1.297853573971320E2  -3.306490603762794E1  -1.232052576032306E2  
 1.524938875305624E11   -2.892320715132466E1   3.848244054065461  -6.400292067877070   1.372014574657003E2  -6.400235504653310   1.043099572066866E2  -3.008873581488371E1   8.825852229294067E1  
 1.525061124694377E11   -2.391916100898411E1  -1.048456007099060E1  -6.498397646971434   1.117342189591040E2  -6.502295654194584   7.892569778624167E1  -2.185012401698210E1   4.417840720193627E1  
 1.525183374083130E11   -2.136473417482136E1  -3.139303479599681E1  -6.683320269777489   8.680754027946794E1  -6.689167968483836   5.445392020735803E1  -1.814220478124456E1   1.228142036029014E1  
 1.525305623471883E11   -2.016270732109659E1  -5.116474711714398E1  -6.843805793700330   6.287293810534123E1  -6.843354410099944   3.096638192900105E1  -1.659660688813843E1  -1.610577213222043E1  
 1.525427872860636E11   -1.953719300813942E1  -7.082301718663121E1  -6.861401863859101   3.934920283367168E1  -6.872985901459320   7.637647620047870  -1.616209334128781E1  -4.206663693184035E1  
 1.525550122249389E11   -1.977921774091051E1  -9.220263397016456E1  -6.807964985364806   1.541121231647308E1  -6.838600076936595  -1.629322819662921E1  -1.667777767858541E1  -6.909748684331971E1  
 1.525672371638142E11   -2.121819863415891E1  -1.127599687556316E2  -6.720318242134183  -8.484536849436715  -6.743638964260525  -4.012851818712426E1  -1.849534291811703E1  -9.926683040508173E1  
 1.525794621026895E11   -2.444521414552275E1  -1.303628073865984E2  -6.615237463244052  -3.317486016407878E1  -6.617432445685662  -6.483361722796205E1  -2.233049704178704E1  -1.396937345337235E2  
 1.525916870415648E11   -3.034247835618027E1  -1.270572152611118E2  -6.526314056944702  -5.851236371556609E1  -6.545694633062665  -9.012907657378004E1  -2.715653937128228E1   1.432291618799463E2  
 1.526039119804401E11   -3.040881107957585E1  -7.534200557976736E1  -6.580074968495354  -8.361621394780556E1  -6.595498326302375  -1.153544009622528E2  -2.300019170557577E1   5.841708365085554E1  
 1.526161369193154E11   -2.564100156199622E1  -7.474445767481929E1  -6.697170295882486  -1.083080623849676E2  -6.714185671677533  -1.398447322403810E2  -1.923824619450897E1   1.690976375622239E1  
 1.526283618581907E11   -2.322865497334026E1  -8.886803322233088E1  -6.741798526951463  -1.323059888802034E2  -6.765182405725565  -1.639138971454308E2  -1.740640960731269E1  -1.131746988376651E1  
 1.526405867970660E11   -2.223994933985624E1  -1.091853624557807E2  -6.728099375815702  -1.564972339269829E2  -6.758438884120366   1.722566658734971E2  -1.691024282190493E1  -3.599346900364060E1  
 1.526528117359413E11   -2.284033195628816E1  -1.338743190272767E2  -6.667200311451468   1.791924495475337E2  -6.694171271275862   1.482080103298799E2  -1.781892176613463E1  -5.861979794452198E1  
 1.526650366748166E11   -2.565379263656957E1  -1.633966166022736E2  -6.566083539622276   1.548309300019891E2  -6.605580852134790   1.233535884848204E2  -2.061791859099800E1  -7.657056568915181E1  
 1.526772616136919E11   -3.322006381385586E1   1.458835318985924E2  -6.479801955481147   1.296421502671835E2  -6.517038300517181   9.831549357069947E1  -2.650845991654512E1  -7.238230387649507E1  
 1.526894865525672E11   -3.084325751807827E1   7.162727344459622  -6.507507703846573   1.040124423513449E2  -6.540721246209526   7.253836345569818E1  -2.530594543937759E1  -1.640469047486138E1  
 1.527017114914425E11   -2.363167950068868E1  -3.692532844555948E1  -6.641564457557242   7.879202813819136E1  -6.688279661768354   4.760781135018329E1  -1.943512203402288E1  -1.799896704695538E1  
 1.527139364303178E11   -2.038688113698257E1  -6.546182719442804E1  -6.768519871993806   5.432881070934061E1  -6.831278776459082   2.323869901422311E1  -1.656435533614400E1  -3.497201764523811E1  
 1.527261613691932E11   -1.851990593794338E1  -9.097917725313225E1  -6.860874669690281   3.039325178734085E1  -6.917985450933909  -8.614943199832518E-1  -1.519251680568043E1  -5.440012065584934E1  
 1.527383863080685E11   -1.785532153153528E1  -1.168807625376077E2  -6.907363466859194   6.788415429790449  -6.968020570335821  -2.461862634761170E1  -1.489250848553224E1  -7.541187486486368E1  
 1.527506112469438E11   -1.818054255301229E1  -1.429041054339532E2  -6.854362699012873  -1.710525313828835E1  -6.922163204388170  -4.837594794592459E1  -1.572433030427213E1  -9.674997001560443E1  
 1.527628361858191E11   -1.969618101402693E1  -1.697910660695085E2  -6.769904614000700  -4.157441733118860E1  -6.818706972883001  -7.288440792371513E1  -1.803095082224491E1  -1.178260780892121E2  
 1.527750611246944E11   -2.289182704025746E1   1.620549039902928E2  -6.714231720400383  -6.634080702539764E1  -6.761608281560910  -9.769393221571016E1  -2.311426729129387E1  -1.336991277056261E2  
 1.527872860635697E11   -2.895963392713474E1   1.295811298109833E2  -6.758263097828385  -9.104494775019495E1  -6.799412839600691  -1.226353687543912E2  -3.165042892372149E1  -9.316555579744390E1  
 1.527995110024450E11   -3.778455551757860E1   1.625539184509364E1  -6.805409290526470  -1.152265651746804E2  -6.837716995470429  -1.467045635816479E2  -2.470114077383741E1  -5.070938634812495E1  
 1.528117359413203E11   -2.697611986139556E1  -6.691775640401013E1  -6.787640047539601  -1.401124769810249E2  -6.835284370670835  -1.709799257685879E2  -2.050827383552623E1  -6.053177825855667E1  
 1.528239608801956E11   -2.259320243590349E1  -1.017221881680642E2  -6.816327127982917  -1.642587386053326E2  -6.878945809804883   1.645875947282953E2  -1.847957582827327E1  -7.806252540642016E1  
 1.528361858190709E11   -2.099292509516487E1  -1.318246464481143E2  -6.807522499014787   1.714171841484115E2  -6.873624012165116   1.404725817129756E2  -1.793239670156393E1  -9.890399004557384E1  
 1.528484107579462E11   -2.085614718650548E1  -1.607244352078465E2  -6.776580223278830   1.470477755611213E2  -6.829545097596476   1.162867573541177E2  -1.884548637875875E1  -1.221337514355422E2  
 1.528606356968215E11   -2.211248446940601E1   1.705626843981480E2  -6.722382358726673   1.224679647254568E2  -6.774356531011552   9.145329107766909E1  -2.156485139676397E1  -1.465640698019413E2  
 1.528728606356968E11   -2.493251220155246E1   1.432521181815184E2  -6.740434291952749   9.769300259832235E1  -6.787353667670460   6.647902015716430E1  -2.772067514274095E1  -1.703240964028583E2  
 1.528850855745721E11   -2.975727820557512E1   1.139805631501295E2  -6.802569059035464   7.346852926446323E1  -6.850332118948666   4.234311497284814E1  -5.651537264423467E1  -9.557081092956939E1  
 1.528973105134474E11   -3.913411984011513E1   4.385041213826546E1  -6.747895147602346   4.942323973951655E1  -6.803582412238839   1.863427818223411E1  -2.969925560680048E1  -2.968756367973266E1  
 1.529095354523227E11   -3.317482694336085E1  -8.338328381533376E1  -6.692170937729337   2.477445059306689E1  -6.740046270880310  -6.262878642614187  -2.442309714658686E1  -4.712564958306315E1  
 1.529217603911981E11   -2.803324791304050E1  -1.263244487883762E2  -6.673011253503652   2.235151639337505E-1  -6.712413080854474  -3.077385286031625E1  -2.243587889800997E1  -6.714468861014940E1  
 1.529339853300734E11   -2.633079037508938E1  -1.632039069632254E2  -6.643441004869962  -2.444541000654806E1  -6.698165974044417  -5.554665291804528E1  -2.251945025301499E1  -8.696338939755346E1  
 1.529462102689487E11   -2.648581133334373E1   1.594873006283979E2  -6.619342239061922  -4.923194125882277E1  -6.678509856409446  -8.062639997218122E1  -2.462656908095540E1  -1.030578445133121E2  
 1.529584352078240E11   -2.794687533499097E1   1.181840655343015E2  -6.653728366348841  -7.428958239347263E1  -6.701202081156893  -1.054092910099689E2  -2.887544670934126E1  -9.923194606784514E1  
 1.529706601466993E11   -2.924174445705736E1   6.760810971013841E1  -6.723876650918124  -9.823465154398745E1  -6.752561863111485  -1.300204066946701E2  -2.936866219042493E1  -6.786109932138625E1  
 1.529828850855746E11   -2.855350562151232E1   7.161514128850920  -6.695285716836446  -1.223235324874149E2  -6.738956948226403  -1.539495879710295E2  -2.674415393484767E1  -5.606956612306730E1  
 1.529951100244499E11   -2.657287597493904E1  -4.287787115247016E1  -6.654737225927240  -1.469464790469429E2  -6.688807604652292  -1.789760907465904E2  -2.431381574046351E1  -5.629809798039911E1  
 1.530073349633252E11   -2.543565248489757E1  -8.534376612175096E1  -6.623995767841599  -1.712589958325513E2  -6.675653690483856   1.565875004722191E2  -2.286055468177590E1  -6.524401327383231E1  
 1.530195599022005E11   -2.571163528532964E1  -1.223928967347469E2  -6.603747719656304   1.637931248239761E2  -6.643716643026276   1.318541014034740E2  -2.285216736759577E1  -7.612842298848995E1  
 1.530317848410758E11   -2.784760996406239E1  -1.600484085929599E2  -6.592350810203155   1.389056038787732E2  -6.607845133008920   1.070357728913435E2  -2.431824389119840E1  -8.050128661287057E1  
 1.530440097799511E11   -3.289583827018574E1   1.537546442402087E2  -6.619456945446768   1.139451954276142E2  -6.663201693509262   8.175401812928283E1  -2.560524888439427E1  -6.677738641468771E1  
 1.530562347188264E11   -3.719742298718539E1   4.963056345355608E1  -6.742835474274543   8.950070175947413E1  -6.759420642486146   5.693167013435789E1  -2.314525506042258E1  -5.347077738080257E1  
 1.530684596577017E11   -2.854666899735937E1  -1.804336244564028E1  -6.777413811115274   6.538910129150877E1  -6.813768791224126   3.296915489765063E1  -2.072185937966363E1  -5.729364924695140E1  
 1.530806845965770E11   -2.349993217077380E1  -5.607097694394754E1  -6.765518829623228   4.131901112641958E1  -6.800005967452999   8.460425180977140  -1.893352358208650E1  -6.517849588821026E1  
 1.530929095354523E11   -2.075380136986911E1  -8.956279131923883E1  -6.779415397156267   1.672154264774011E1  -6.795587496322259  -1.597742770623184E1  -1.767405594537788E1  -7.659707110885310E1  
 1.531051344743276E11   -1.953875723659345E1  -1.210753532962546E2  -6.791689789116842  -7.572136801518295  -6.836131198873141  -4.063957626072975E1  -1.712359631589318E1  -9.111540925906853E1  
 1.531173594132029E11   -1.938074459117752E1  -1.519421313253710E2  -6.816646666567819  -3.235874445678142E1  -6.824920566173184  -6.491448812636585E1  -1.741741589799993E1  -1.059612131758587E2  
 1.531295843520783E11   -2.017286146143885E1   1.772910716822232E2  -6.858073968082402  -5.647611337969715E1  -6.882053603852208  -8.980113558951271E1  -1.876731092797948E1  -1.177437341228967E2  
 1.531418092909536E11   -2.182205875314724E1   1.453571729386598E2  -6.934372101753547  -8.053048067339175E1  -6.959266346118799  -1.139790863624067E2  -2.019241890870043E1  -1.212980658498502E2  
 1.531540342298289E11   -2.422491236267186E1   1.050877537640306E2  -6.922572131076389  -1.042432495560649E2  -6.938150882893520  -1.377528389561707E2  -2.110726903386939E1  -1.246385956553840E2  
 1.531662591687042E11   -2.756336076330346E1   4.700941952091101E1  -6.818327054607564  -1.282839423793982E2  -6.845441144227994  -1.616294331604431E2  -2.254979903320514E1  -1.265170146487964E2  
 1.531784841075795E11   -2.803296884103926E1  -2.705345190978666E1  -6.723298163141005  -1.530645552778982E2  -6.740329922178180   1.734608840522341E2  -2.382425706737569E1  -1.216923764463771E2  
 1.531907090464548E11   -2.571684597822055E1  -8.471817115869672E1  -6.659084116129893  -1.779022379585660E2  -6.690226606282509   1.484675539778076E2  -2.371582317010130E1  -1.153940081486776E2  
 1.532029339853301E11   -2.429267916376091E1  -1.284048024533592E2  -6.646869355798200   1.574472258963374E2  -6.693011465171991   1.236676025499883E2  -2.320680896723509E1  -1.162438906390740E2  
 1.532151589242054E11   -2.416881268392414E1  -1.669622523370888E2  -6.709067008890642   1.321029476116550E2  -6.724667610281557   9.876524897337235E1  -2.345393006753460E1  -1.185988170592262E2  
 1.532273838630807E11   -2.499721017115171E1   1.514291368302322E2  -6.802338792457841   1.080546235776350E2  -6.817130225558029   7.398622884131153E1  -2.365127859991025E1  -1.146285022577785E2  
 1.532396088019560E11   -2.594482444642097E1   1.010225267738854E2  -6.840206769276551   8.422389814185797E1  -6.856808324830632   5.008484434391978E1  -2.270554752595565E1  -1.169428525800620E2  
 1.532518337408313E11   -2.596004780180454E1   4.057685175818319E1  -6.784139636244388   5.997474787206321E1  -6.802029709481910   2.616397772380586E1  -2.252998715864835E1  -1.241572155069208E2  
 1.532640586797066E11   -2.406663604454453E1  -1.271187160721190E1  -6.713773525699257   3.560943414725098E1  -6.746547237309095   1.680356962837431  -2.314768831035153E1  -1.295264121264960E2  
 1.532762836185819E11   -2.210054625390740E1  -5.393990626012918E1  -6.658105435440421   1.089126259134359E1  -6.676582507259806  -2.271744922970512E1  -2.351070229608099E1  -1.336052044581449E2  
 1.532885085574572E11   -2.102297085086239E1  -8.663563978921239E1  -6.591062026910056  -1.377411353229956E1  -6.633672599625442  -4.741801153197827E1  -2.382244854427553E1  -1.406540541310185E2  
 1.533007334963325E11   -2.095821928648018E1  -1.139656632336524E2  -6.583455257764306  -3.875998004073928E1  -6.612620621730751  -7.234932659432451E1  -2.498295034757119E1  -1.523738801550350E2  
 1.533129584352078E11   -2.168851505538546E1  -1.379911787474063E2  -6.622562827936963  -6.347401615434237E1  -6.644958048105002  -9.721600648647826E1  -2.853083974984019E1  -1.617269943838205E2  
 1.533251833740831E11   -2.366720331595288E1  -1.571808829740036E2  -6.653749892774916  -8.803245770032063E1  -6.660219843623933  -1.214463970989245E2  -3.441061942572525E1  -1.493507565353656E2  
 1.533374083129584E11   -2.745221238889288E1  -1.614203492083704E2  -6.585540608917026  -1.119342753744421E2  -6.614520914788141  -1.452832199383921E2  -3.819763084347687E1  -9.114533901547979E1  
 1.533496332518337E11   -2.861048909981885E1  -1.325290126105132E2  -6.521031752516526  -1.367248350676636E2  -6.536306718104578  -1.699185218727457E2  -3.018645145079855E1  -5.263255769185673E1  
 1.533618581907091E11   -2.438555995290273E1  -1.257578218954000E2  -6.468033879908906  -1.619540662152097E2  -6.497769616720426   1.651097865940957E2  -2.483335740753839E1  -5.911840273367132E1  
 1.533740831295844E11   -2.136112389643949E1  -1.412260594363148E2  -6.470776388111444   1.731935257869099E2  -6.482295677173950   1.397138934649860E2  -2.171878397100489E1  -7.483555607818404E1  
 1.533863080684597E11   -1.995697377812623E1  -1.620989587351428E2  -6.504929018298302   1.481191100523589E2  -6.523276375406372   1.149787363054385E2  -2.029136476033993E1  -9.214264058658067E1  
 1.533985330073350E11   -1.983694925170916E1   1.750061518469254E2  -6.595953304609254   1.232506333734914E2  -6.603872247116248   9.033663261733688E1  -2.013962577225017E1  -1.068098796890581E2  
 1.534107579462103E11   -2.063382973241636E1   1.499322496389319E2  -6.673604278312321   9.907649609168162E1  -6.698124536129627   6.619746608677190E1  -2.039441693690750E1  -1.177573189921297E2  
 1.534229828850856E11   -2.314315880797093E1   1.215932611404663E2  -6.650932978671190   7.521332732333558E1  -6.688620494368029   4.225416365174758E1  -2.098018038344819E1  -1.293710705609276E2  
 1.534352078239609E11   -2.881756789618939E1   8.466907239515048E1  -6.591940704033966   5.055649059776741E1  -6.614308326683102   1.798649381926245E1  -2.279968303096331E1  -1.374045720177564E2  
 1.534474327628362E11   -3.633348174520852E1  -3.293734128442338E1  -6.523730575356882   2.586063879510772E1  -6.558303431759202  -6.587460687144201  -2.511083309901683E1  -1.294773149840766E2  
 1.534596577017115E11   -2.643193868601071E1  -1.078643343815684E2  -6.486912620400512   6.329707856734869E-1  -6.515363156215577  -3.188031570041418E1  -2.427528219089595E1  -1.128768414727323E2  
 1.534718826405868E11   -2.196125250867708E1  -1.398342760904591E2  -6.513269474032629  -2.432951270011097E1  -6.574954861034656  -5.727385197387578E1  -2.173598376166881E1  -1.128003008445883E2  
 1.534841075794621E11   -1.978898503545155E1  -1.670397011367792E2  -6.637812188323116  -4.934182412858176E1  -6.676092837395198  -8.184773612244955E1  -2.023287715408133E1  -1.226454375927554E2  
 1.534963325183374E11   -1.900285747524919E1   1.667775300484517E2  -6.761603495564009  -7.372977092818853E1  -6.830575100822077  -1.058837664998901E2  -1.940265373275405E1  -1.343689650144860E2  
 1.535085574572127E11   -1.942020134680747E1   1.414761357001391E2  -6.807223781422096  -9.736806703815070E1  -6.861737022188954  -1.293711031821530E2  -1.887624974977635E1  -1.500056583112742E2  
 1.535207823960880E11   -2.115191853957708E1   1.173184631936563E2  -6.751287255245670  -1.212830663375574E2  -6.800554630017125  -1.528927690086288E2  -1.945229046511252E1  -1.708284255923554E2  
 1.535330073349633E11   -2.468444142790249E1   9.669168326268394E1  -6.641139921264961  -1.456242762629252E2  -6.684314273445019  -1.771336344346735E2  -2.171470500368747E1   1.668431710058157E2  
 1.535452322738386E11   -3.218700116666078E1   8.802148114396395E1  -6.521347118084400  -1.703633621096499E2  -6.582884716047448   1.580523689585392E2  -2.669236490530204E1   1.432923561798854E2  
 1.535574572127139E11   -3.403744162109527E1   1.738268806760688E2  -6.474439378617308   1.646464208430679E2  -6.531234709872480   1.331367423708481E2  -4.479165181759400E1   1.216942961876082E2  
 1.535696821515892E11   -2.585381163541253E1   1.746872195456773E2  -6.503525712337790   1.391845775566387E2  -6.570228829504195   1.080836957694909E2  -2.975278079188208E1  -7.867328383278642E1  
 1.535819070904645E11   -2.212061333379054E1   1.517046260923550E2  -6.631931956319345   1.144854057275044E2  -6.675640682032110   8.319441637172976E1  -2.361865231902840E1  -9.935946644619634E1  
 1.535941320293398E11   -2.076981449806868E1   1.244059547010613E2  -6.693983235737306   9.013569937321830E1  -6.754790180385244   5.891647177173788E1  -2.084629378256646E1  -1.228214708292742E2  
 1.536063569682152E11   -2.098948870106426E1   9.620312666872843E1  -6.694045243855579   6.655046425063725E1  -6.753731580065652   3.503067635247751E1  -1.999687280283425E1  -1.463145607260915E2  
 1.536185819070905E11   -2.237666860798639E1   6.629333919594706E1  -6.652907686849061   4.193351602716752E1  -6.704418143317428   1.117910431323027E1  -2.054393363816319E1  -1.697260339875805E2  
 1.536308068459658E11   -2.517932965109047E1   2.884846000106302E1  -6.599711911775088   1.756484582802129E1  -6.656384457913623  -1.320398089688897E1  -2.259087404356483E1   1.696502397452735E2  
 1.536430317848411E11   -2.870545254742983E1  -2.772126732656630E1  -6.526075942909876  -7.438988965111977  -6.579493449567239  -3.806007674344363E1  -2.656671777457200E1   1.553115238615954E2  
 1.536552567237164E11   -2.808703887808887E1  -1.045576049078940E2  -6.512625985690212  -3.219640236445527E1  -6.551305006981724  -6.279665070150023E1  -3.303987731860800E1   1.652795215250311E2  
 1.536674816625917E11   -2.440463812528664E1  -1.580832794107855E2  -6.565921705634334  -5.720479114556825E1  -6.633592994941906  -8.795369900983599E1  -3.240177119921276E1  -1.394913195587892E2  
 1.536797066014670E11   -2.227793973016555E1   1.648761383371049E2  -6.619727834780761  -8.160474120769943E1  -6.678289594141787  -1.124441719513975E2  -2.686738223319172E1  -1.403283553213261E2  
 1.536919315403423E11   -2.163972582424004E1   1.348701555293133E2  -6.631400670588088  -1.059156241991914E2  -6.693763419637945  -1.370015827846133E2  -2.470270327867004E1  -1.624450327778594E2  
 1.537041564792176E11   -2.214850082206232E1   1.088362593611692E2  -6.633528789399813  -1.301612508278600E2  -6.689731454891868  -1.609257627723764E2  -2.471822869462527E1   1.694457145607526E2  
 1.537163814180929E11   -2.404073757811991E1   8.638409764589729E1  -6.592858191321546  -1.544097556971952E2  -6.656996312479472   1.743048887171466E2  -2.686636516416564E1   1.340221855804239E2  
 1.537286063569682E11   -2.806910287954132E1   7.105833093102089E1  -6.549425091027828  -1.794030924637075E2  -6.608470318235267   1.497959485951987E2  -3.032090913458320E1   7.624226903372103E1  
 1.537408312958435E11   -3.455589853054306E1   9.490198131201564E1  -6.530888805904470   1.557949990148663E2  -6.586656485672169   1.247123921952344E2  -2.875311570215799E1  -3.744110969033004  
 1.537530562347188E11   -2.879851231654020E1   1.375346277438798E2  -6.562564396306131   1.311534707544276E2  -6.618059021724792   1.001418835609323E2  -2.395554731159652E1  -5.311810405581024E1  
 1.537652811735941E11   -2.405007975094533E1   1.224675212041547E2  -6.624642870756924   1.068974688833990E2  -6.670112421117230   7.512477578448986E1  -2.072464629064047E1  -8.757503231763904E1  
 1.537775061124694E11   -2.190085260275114E1   1.001229890379435E2  -6.650388211922726   8.258273593765932E1  -6.691991026105780   5.061045866290188E1  -1.911307802229215E1  -1.185952208608559E2  
 1.537897310513447E11   -2.110926491184861E1   7.608949278624814E1  -6.663275451377897   5.830424946070653E1  -6.705685935855910   2.648846065123026E1  -1.871487085829969E1  -1.471365236823994E2  
 1.538019559902200E11   -2.132260811236801E1   5.073035183322126E1  -6.669408104830274   3.416328632402850E1  -6.721962006447037   2.324566815691006  -1.946622630309547E1  -1.750656399546015E2  
 1.538141809290953E11   -2.250992655488783E1   2.369300718842262E1  -6.628622044717183   9.904656422699146  -6.688084764577019  -2.218726635937822E1  -2.145328128115538E1   1.566605269521463E2  
 1.538264058679706E11   -2.501224504667164E1  -7.807796753303559  -6.584025597399532  -1.440332325585296E1  -6.625082133267263  -4.666736504518104E1  -2.536828550118964E1   1.241985416938196E2  
 1.538386308068460E11   -2.986440490237906E1  -5.261710864714215E1  -6.566628114753405  -3.901104664271313E1  -6.590742255019888  -7.145646795461335E1  -3.289639584350159E1   6.124736827187359E1  
 1.538508557457213E11   -3.484336073502816E1  -1.446484343205104E2  -6.556675416754056  -6.350081608648594E1  -6.567823891141362  -9.581795636071054E1  -2.985342087255599E1  -5.725809904787541E1  
 1.538630806845966E11   -2.982092904313721E1   1.397395538146159E2  -6.539477795066000  -8.842817020104135E1  -6.547908684676697  -1.207963470703562E2  -2.403275896672374E1  -1.021727799580510E2  
 1.538753056234719E11   -2.602368934353424E1   9.886939917748785E1  -6.553710815222393  -1.129228830908200E2  -6.557317391249534  -1.457535562164392E2  -2.165575351486743E1  -1.335604087080803E2  
 1.538875305623472E11   -2.442848366751174E1   6.650651738244324E1  -6.595881478441013  -1.370588160115130E2  -6.595555522128021  -1.705236662699655E2  -2.109111164143960E1  -1.625708264475370E2  
 1.538997555012225E11   -2.402846917151755E1   3.510612496476725E1  -6.596464653431523  -1.613991262358482E2  -6.596184706313274   1.652475812436110E2  -2.201131896529396E1   1.698053460321088E2  
 1.539119804400978E11   -2.449007009276736E1   2.421140227359812  -6.584494132378938   1.741230167522452E2  -6.608171481876573   1.407378495609476E2  -2.458424315633876E1   1.415940196228855E2  
 1.539242053789731E11   -2.588262126465457E1  -3.343590578154181E1  -6.571126619537880   1.499752594287231E2  -6.576706668389529   1.160955769682200E2  -3.005843855604719E1   1.036870289052866E2  
 1.539364303178484E11   -2.850704186049437E1  -7.504100309341116E1  -6.524475620447602   1.258842195221124E2  -6.557771026808134   9.155923209235110E1  -3.700516302059317E1  -9.996616772410469  
 1.539486552567237E11   -3.133274987283432E1  -1.241280883565766E2  -6.459716503567856   1.011935523146745E2  -6.480009631543966   6.691062885671279E1  -2.800510708203398E1  -8.484408136932449E1  
 1.539608801955990E11   -3.327461608286905E1  -1.797907434250079E2  -6.417466406343163   7.607242613651688E1  -6.441283047575095   4.231530366677420E1  -2.405129973509229E1  -1.172446669336767E2  
 1.539731051344743E11   -3.539057994815285E1   1.241432506820577E2  -6.413371322005693   5.136740412605294E1  -6.431762512739125   1.718739491314279E1  -2.268119565744667E1  -1.429054349858593E2  
 1.539853300733496E11   -3.866128955245810E1   6.377605649007140E1  -6.416023734385603   2.646860930201960E1  -6.439214688713726  -7.874527193081478  -2.290373088797128E1  -1.643968248888583E2  
 1.539975550122250E11   -3.832707634080634E1  -4.435050680822752E1  -6.428006636805924   1.818248119745502  -6.438001660548648  -3.287103008052002E1  -2.480682212264792E1  -1.790450825689860E2  
 1.540097799511003E11   -3.046493002423870E1  -1.135045473409841E2  -6.461577467785491  -2.307022836032573E1  -6.494799025402648  -5.753922284044892E1  -2.809070288448942E1  -1.760275478975354E2  
 1.540220048899756E11   -2.517467089727256E1  -1.567605717981460E2  -6.498905756985811  -4.761967177457122E1  -6.544538312475940  -8.215241574596263E1  -2.747594565479534E1  -1.418809464568442E2  
 1.540342298288509E11   -2.215910280687213E1   1.700232701183650E2  -6.526480830279215  -7.194572614321342E1  -6.554806001513674  -1.068522402843123E2  -2.220945427156669E1  -1.409250034544278E2  
 1.540464547677262E11   -2.025796845126789E1   1.402011218721848E2  -6.580060707385164  -9.677663129858965E1  -6.615671373839156  -1.316281744398586E2  -1.891126678480497E1  -1.592774557552802E2  
 1.540586797066015E11   -1.910944793892094E1   1.122442772864585E2  -6.647877037158146  -1.212077612418524E2  -6.685682296957112  -1.560318092033074E2  -1.718134193065015E1   1.780335002552895E2  
 1.540709046454768E11   -1.870321326016463E1   8.521593048891728E1  -6.726849574382285  -1.452890516501270E2  -6.746222116763371   1.798077876124810E2  -1.647364093587975E1   1.534851394826836E2  
 1.540831295843521E11   -1.894942580206779E1   5.863910844247309E1  -6.755257982049375  -1.692101512394176E2  -6.787556879632692   1.554327981938718E2  -1.667642754192778E1   1.276790853971445E2  
 1.540953545232274E11   -1.999030916320745E1   3.145020452279861E1  -6.724129421065107   1.667406870118926E2  -6.766563548250637   1.318341324558346E2  -1.772431661728985E1   1.003673307389210E2  
 1.541075794621027E11   -2.250333258324817E1   3.623646389706360  -6.663645405087626   1.423840883084194E2  -6.718877960352817   1.077774813433664E2  -1.982995976738179E1   6.961999603727885E1  
 1.541198044009780E11   -2.721671101840922E1  -2.086872808645511E1  -6.571782189637874   1.185314314460376E2  -6.635526741621134   8.363981809123492E1  -2.357786385504448E1   2.944317029987799E1  
 1.541320293398533E11   -3.837685036122827E1  -4.266673453653159E1  -6.471201087543035   9.360956862062319E1  -6.524584932143260   5.844414981182025E1  -2.832136260695722E1  -3.890798630729875E1  
 1.541442542787286E11   -3.505128551803214E1   9.555943108378801E1  -6.449847705636257   6.865473944121767E1  -6.493618387646269   3.313115616498321E1  -2.627124157831729E1  -1.232227011155880E2  
 1.541564792176039E11   -2.750365463490309E1   7.289506819989106E1  -6.491536299441935   4.320857500267734E1  -6.537708779331608   8.527071083347906  -2.236624372190176E1  -1.711531677168967E2  
 1.541687041564792E11   -2.440921188232166E1   4.474971533315108E1  -6.542930099690399   1.839800426718484E1  -6.582501537913232  -1.594740395279991E1  -2.051612951124045E1   1.538101419363293E2  
 1.541809290953545E11   -2.323662908127923E1   1.586154032828932E1  -6.601353385957485  -6.130366287274008  -6.635628511261919  -4.005646560164993E1  -2.010285001619871E1   1.227677648540820E2  
 1.541931540342298E11   -2.345623803513612E1  -1.726343533922924E1  -6.623446575569501  -3.034536975647534E1  -6.683682343563224  -6.447530866114110E1  -2.089863554431458E1   9.328075682267557E1  
 1.542053789731051E11   -2.490029021592973E1  -5.374558028661218E1  -6.585660176084549  -5.457675833601258E1  -6.629917051433987  -8.822277207125453E1  -2.336584122783032E1   6.352284922191002E1  
 1.542176039119804E11   -2.693552040675903E1  -9.745067694398435E1  -6.503958878868521  -7.898104829963738E1  -6.554497043496625  -1.130060926341783E2  -2.873610237572162E1   3.071198431842728E1  
 1.542298288508557E11   -2.808645351833270E1  -1.485819596900450E2  -6.448479774247759  -1.040137042360512E2  -6.490465027840427  -1.374925154621641E2  -4.555961295729087E1  -7.015495737645557E1  
 1.542420537897311E11   -2.773654516447338E1   1.573777868752868E2  -6.449737622951569  -1.291605300027199E2  -6.498456526071005  -1.627635788019196E2  -2.952450715419465E1   1.708250346572287E2  
 1.542542787286064E11   -2.675940498036012E1   1.111332743977240E2  -6.500325142839206  -1.539961365130456E2  -6.552188228489195   1.723596943671410E2  -2.445890240007641E1   1.371023271756957E2  
 1.542665036674817E11   -2.664553527135679E1   7.107587506751860E1  -6.587004644768677  -1.784845172624682E2  -6.635509201101357   1.476878149147983E2  -2.251386504569868E1   1.061677220609300E2  
 1.542787286063570E11   -2.896712850304968E1   3.433073846659541E1  -6.663302152343786   1.571605075711830E2  -6.699445062035696   1.235956858456754E2  -2.231884534974196E1   7.435593577164785E1  
 1.542909535452323E11   -3.536691076601495E1   7.924806750784119E-1  -6.642428270621538   1.332485326794973E2  -6.690086619419301   1.000363294861694E2  -2.373837430164786E1   4.079440630882677E1  
 1.543031784841076E11   -4.854377304086250E1  -1.547887889516685E2  -6.567808118170533   1.086968843703807E2  -6.603429900074911   7.553324375539593E1  -2.700943394206511E1  -1.807448723923846  
 1.543154034229829E11   -3.100846284602701E1   1.495690922717212E2  -6.480465726133515   8.401164533373861E1  -6.524568472787565   5.093403691328336E1  -3.068373671992782E1  -7.836677106127497E1  
 1.543276283618582E11   -2.559116981431684E1   1.210767508268124E2  -6.472257665114624   5.879271218352810E1  -6.509902307053181   2.578758880423284E1  -2.651946663074391E1  -1.597096098424761E2  
 1.543398533007335E11   -2.243749684603543E1   9.400847729678230E1  -6.517189352525162   3.403886558672747E1  -6.532468853823497   1.068240993585124  -2.212364278784002E1   1.543844729552211E2  
 1.543520782396088E11   -2.089226382158618E1   6.783947840550239E1  -6.594636474138592   9.038205748101339  -6.639267757360677  -2.364933776039354E1  -1.952373295739178E1   1.185525071433083E2  
 1.543643031784841E11   -2.069199085439346E1   4.250244335616104E1  -6.698802140525044  -1.525012197184542E1  -6.721138105711466  -4.789995510823273E1  -1.834291763618672E1   8.627539301137324E1  
 1.543765281173594E11   -2.123499889281817E1   2.098487294261022E1  -6.693110766229614  -3.903999693965956E1  -6.739552188341851  -7.166624229828331E1  -1.818711211319763E1   5.522438868814189E1  
 1.543887530562347E11   -2.234506123047687E1   1.315080866036186E-2  -6.621676618097171  -6.310651346446925E1  -6.658231310307271  -9.561489070415939E1  -1.906269592277687E1   2.395639177128150E1  
 1.544009779951100E11   -2.475092867433198E1  -2.199991548947439E1  -6.523130794465170  -8.781838274107710E1  -6.563864618811527  -1.198346755094194E2  -2.107456424557433E1  -1.016345471555830E1  
 1.544132029339853E11   -2.969430520983891E1  -4.148927765312604E1  -6.429969255570394  -1.126834321889909E2  -6.464461868768152  -1.446082938657899E2  -2.506589335396648E1  -5.129015553293236E1  
 1.544254278728606E11   -4.368669987463551E1  -6.772457840256258  -6.391689133221747  -1.377881625386009E2  -6.438299744070422  -1.697902626559882E2  -3.064622644507659E1  -1.296617512715391E2  
 1.544376528117359E11   -3.152288751076067E1   6.203952915066859E1  -6.418913080748175  -1.632623718924650E2  -6.482178583182527   1.649673196785165E2  -2.707502726406954E1   1.375429968134728E2  
 1.544498777506112E11   -2.644683964362469E1   4.125928530206254E1  -6.524798464228420   1.718172744995495E2  -6.571219528449150   1.402277454478708E2  -2.274906286633108E1   8.899793476223717E1  
 1.544621026894865E11   -2.513067989610915E1   1.749765516790914E1  -6.607436035585081   1.477114817415271E2  -6.653422267688367   1.160519019161516E2  -2.077466597516521E1   5.182504819441574E1  
 1.544743276283619E11   -2.551389940824027E1  -1.836272311982309  -6.586136935737855   1.235733328334513E2  -6.627833572390273   9.216825140416128E1  -2.002794313484041E1   1.701079810487649E1  
 1.544865525672372E11   -2.697435657882913E1  -1.713886520557366E1  -6.539705101034780   9.939939702584313E1  -6.575316381287268   6.743572261885031E1  -2.047433428596000E1  -1.978141523691409E1  
 1.544987775061125E11   -3.025940836655234E1  -2.591961543775345E1  -6.483567117834890   7.481927992406855E1  -6.518363977472065   4.284948887794261E1  -2.177346312534150E1  -6.170840625622869E1  
 1.545110024449878E11   -3.458758513952114E1  -3.545191319572668  -6.455165421291493   4.974502246674878E1  -6.475565022265865   1.786819280820875E1  -2.329385541048161E1  -1.146885539778099E2  
 1.545232273838631E11   -3.042907251911023E1   2.779684589119633E1  -6.488460362822475   2.459475977696482E1  -6.516661781903610  -7.370693395309679  -2.335907713155763E1  -1.760455102612513E2  
 1.545354523227384E11   -2.611518018791810E1   1.654452626807660E1  -6.618142697591247  -1.045098780146880E-1  -6.652276791010022  -3.242596172910471E1  -2.189948693176918E1   1.289060206507630E2  
 1.545476772616137E11   -2.455390494466692E1  -6.798636479076183  -6.724530035583944  -2.399996916850500E1  -6.763941253270463  -5.632015560976638E1  -2.068432672760489E1   8.535904694330576E1  
 1.545599022004890E11   -2.451537722602060E1  -2.677858737323044E1  -6.724112740979043  -4.789979562187451E1  -6.738645801654629  -7.975269785519193E1  -2.014896572142832E1   4.895752182466507E1  
 1.545721271393643E11   -2.497751094342360E1  -4.846289039030262E1  -6.659896390044590  -7.225017819455547E1  -6.703931651479235  -1.039081967841200E2  -2.066255164792118E1   1.375517693891934E1  
 1.545843520782396E11   -2.632131536938555E1  -7.681999364776537E1  -6.574593520721733  -9.659885760200216E1  -6.635432054002362  -1.286866937165030E2  -2.253848623385286E1  -2.404126505573890E1  
 1.545965770171149E11   -2.940341210853655E1  -1.156357332793436E2  -6.523013686285307  -1.215526044362643E2  -6.557456076287143  -1.532511141780806E2  -2.633880341714757E1  -7.452513052175415E1  
 1.546088019559902E11   -3.258545308940219E1   1.783350656676612E2  -6.483242634943049  -1.466870467157887E2  -6.533230054905173  -1.782855538173529E2  -2.839583878307212E1  -1.612686919486475E2  
 1.546210268948655E11   -3.088349776353781E1   1.050425221293613E2  -6.555923486751910  -1.721160385011794E2  -6.592850053632821   1.562131770445698E2  -2.376394866034747E1   1.276525684709908E2  
 1.546332518337408E11   -2.820942570929002E1   6.154971247837086E1  -6.683903362133751   1.631359825776143E2  -6.715931335895434   1.316021253423205E2  -2.015847493485236E1   8.435668511816826E1  
 1.546454767726162E11   -2.664713614045342E1   3.544041215239818E1  -6.760877326927618   1.393218163310111E2  -6.820513561927131   1.076242083733565E2  -1.839283310462249E1   4.940835674336977E1  
 1.546577017114915E11   -2.564747044086856E1   1.151054356368434E1  -6.757807320832781   1.155754827365997E2  -6.816045353529879   8.339948838721612E1  -1.791742776558494E1   1.725260209920106E1  
 1.546699266503668E11   -2.630564947469523E1  -1.047053605989750E1  -6.716658373899184   9.112359910642051E1  -6.754255649460500   5.968211003607711E1  -1.845926957561368E1  -1.509445528695019E1  
 1.546821515892421E11   -2.909557382039717E1  -2.467060657493780E1  -6.617721236893534   6.696444546728890E1  -6.680052243258881   3.491530144974795E1  -2.035749481795268E1  -5.151759199598372E1  
 1.546943765281174E11   -3.423812001768976E1  -8.344128960979850  -6.546096574183279   4.194743484140364E1  -6.593789741023017   9.686756032606287  -2.387736062880352E1  -1.015837083712480E2  
 1.547066014669927E11   -2.994514665323118E1   3.195333027459141E1  -6.561692913357041   1.691899832128616E1  -6.598556664181854  -1.550564413059144E1  -2.570558249704461E1   1.777368404626343E2  
 1.547188264058680E11   -2.474249204250003E1   2.209867505483038E1  -6.698111349240956  -7.989842658238484  -6.738317203676208  -4.063263591692758E1  -2.188343615123680E1   1.101761495897206E2  
 1.547310513447433E11   -2.223443921424766E1   2.915684041309541  -6.822478523598556  -3.234919054546385E1  -6.874426288742446  -6.442548730247252E1  -1.877990485385798E1   6.843504694818327E1  
 1.547432762836186E11   -2.067727142968160E1  -1.764618649048122E1  -6.891036563874125  -5.630810857393513E1  -6.924187730656333  -8.847217836824370E1  -1.710169700326146E1   3.702332561682876E1  
 1.547555012224939E11   -1.995738204585401E1  -4.034955438142212E1  -6.893692908037917  -7.934153567317840E1  -6.928622089903563  -1.125043091608127E2  -1.659982186070696E1   7.980215855549133  
 1.547677261613692E11   -2.012071984322631E1  -6.465411807056651E1  -6.822480077257876  -1.036295975105414E2  -6.848563578462109  -1.364684629916707E2  -1.712368159064656E1  -1.976467392582621E1  
 1.547799511002445E11   -2.126104392322996E1  -9.081616152330510E1  -6.693668369951086  -1.279537992393884E2  -6.720786554197253  -1.607872456121271E2  -1.901548347422974E1  -4.690668825108577E1  
 1.547921760391198E11   -2.378723995853399E1  -1.188894204672142E2  -6.599207513569683  -1.528858113810953E2  -6.623514181017083   1.740628954585874E2  -2.324429801125257E1  -7.472760012484126E1  
 1.548044009779951E11   -2.867049528525860E1  -1.453793278359991E2  -6.601073048101021  -1.783394402770829E2  -6.601355640418144   1.489746489948581E2  -3.616431591473019E1  -1.012102251548933E2  
 1.548166259168704E11   -3.768025870708548E1  -1.759285729050365E2  -6.667539028468172   1.572270019284858E2  -6.690657028937037   1.242492413974846E2  -2.934164162161957E1   4.828711116537413E1  
 1.548288508557457E11   -3.852494624758623E1   1.860492166995000E1  -6.673032257687935   1.328257059494331E2  -6.707946707854761   9.970667939931840E1  -2.281138558328418E1   2.622223688830800E1  
 1.548410757946210E11   -2.946888470277311E1  -2.729157962803383E1  -6.690790720084247   1.087519184996811E2  -6.722614129579423   7.501545357499025E1  -2.017020487684267E1   2.656966840824651  
 1.548533007334963E11   -2.643649754826767E1  -6.117832898907024E1  -6.680219706300269   8.416817433943319E1  -6.712115763130111   5.084982434813656E1  -1.949698448058507E1  -2.021276353887107E1  
 1.548655256723716E11   -2.542665009092620E1  -9.636338349478824E1  -6.650955797263410   5.944872065353840E1  -6.663163243329047   2.620093976845464E1  -2.029330505125732E1  -4.167083091054658E1  
 1.548777506112470E11   -2.566350271460443E1  -1.325480823677807E2  -6.615026976138541   3.476290651348216E1  -6.644037087521634   1.385686494587083  -2.318933357704104E1  -5.909272500274238E1  
 1.548899755501223E11   -2.664760349811273E1  -1.712642656765240E2  -6.680913459694446   9.644252067026187  -6.692052859885108  -2.390709821139486E1  -2.859658802853098E1  -5.037203418827897E1  
 1.549022004889976E11   -2.746088510494214E1   1.491650178755910E2  -6.789053135900995  -1.482205312718517E1  -6.807822982546984  -4.808733594267242E1  -2.644501150071794E1  -9.557582506418971  
 1.549144254278729E11   -2.707457975106276E1   1.026585785254944E2  -6.805018317718203  -3.862546644097750E1  -6.824331235879761  -7.219734733935177E1  -2.223748915731093E1  -1.334374818533299E1  
 1.549266503667482E11   -2.641958884548897E1   5.547963382873216E1  -6.796133507351626  -6.275211769922492E1  -6.818943892256066  -9.660786799635173E1  -2.003545780856500E1  -2.891520142086772E1  
 1.549388753056235E11   -2.626834331063126E1   1.357914450051457E1  -6.784905332074897  -8.721070576696911E1  -6.804284771366617  -1.207313547893049E2  -1.921151861800226E1  -4.953588042929339E1  
 1.549511002444988E11   -2.719828629627984E1  -2.417622471840896E1  -6.736795119227625  -1.114572079564630E2  -6.744675122845230  -1.450069419154480E2  -1.951086533268123E1  -7.259664374079347E1  
 1.549633251833741E11   -2.931395281214870E1  -6.294792122993228E1  -6.658374109149802  -1.356812841121375E2  -6.681735794901067  -1.696874153681944E2  -2.136565568709492E1  -9.863904288444614E1  
 1.549755501222494E11   -3.358840305496222E1  -1.067381884115931E2  -6.623943621344106  -1.605367527701831E2  -6.666291013163082   1.647062772452725E2  -2.581921844303287E1  -1.308193519228830E2  
 1.549877750611247E11   -3.734192658260371E1  -1.770873530499918E2  -6.667029922348939   1.747708456320612E2  -6.676876575852579   1.403234243747726E2  -3.709808504897353E1   1.534974872444865E2  
 1.550000000000000E11   -3.404729217221661E1   1.023694464325199E2  -6.678594293367793   1.501347844369335E2  -6.699506255132609   1.154767092588667E2  -2.890339739347438E1   3.169567913769328E1  
 1.550122249388753E11   -2.981888119199611E1   5.175083441819437E1  -6.685261471905058   1.256434450580671E2  -6.694757503915056   9.098684576697990E1  -2.365509235561465E1  -1.684724318463940  
 1.550244498777506E11   -2.831169158063829E1   1.301043398394668E1  -6.684336441447164   1.011903277537694E2  -6.711178730271728   6.668759614472610E1  -2.161791251158517E1  -2.819130911717681E1  
 1.550366748166259E11   -2.903672691987116E1  -2.462680883251135E1  -6.687871008407002   7.642895520380728E1  -6.712806671415727   4.236216695344408E1  -2.147883133267439E1  -5.323798715999778E1  
 1.550488997555012E11   -3.254900180142866E1  -6.471607896216075E1  -6.664378018180562   5.169551788411344E1  -6.685075275607991   1.786245773178470E1  -2.328843170666612E1  -7.842155204087948E1  
 1.550611246943765E11   -3.834120880214962E1  -1.541759069412578E2  -6.651914736316368   2.707274539089986E1  -6.688056211223560  -7.078165155916363  -2.889025027921447E1  -1.015919340540771E2  
 1.550733496332518E11   -3.172916881972361E1   1.147695373914812E2  -6.725951920105896   2.352219174461259  -6.747291153695008  -3.200311023504710E1  -4.203385028092544E1   5.755140682501941  
 1.550855745721271E11   -2.611515761215962E1   7.954319674077738E1  -6.753825320562915  -2.192974705222587E1  -6.789119442505215  -5.628882045396154E1  -2.656824590260564E1   1.491336001365914E1  
 1.550977995110024E11   -2.245926642792626E1   4.943281792101821E1  -6.771202646874916  -4.619904095918835E1  -6.795510554531691  -8.083609119142238E1  -2.172359906352005E1  -3.695637065936348  
 1.551100244498778E11   -2.047543846530988E1   2.050868336338920E1  -6.821086133368452  -7.082834319380272E1  -6.843791086722116  -1.056538739759502E2  -1.916516785626223E1  -2.515828870203718E1  
 1.551222493887531E11   -1.975477577183834E1  -6.952023619783043  -6.835990312635148  -9.517651598551416E1  -6.878665860507682  -1.294737551141436E2  -1.808574925654399E1  -4.745847690033943E1  
 1.551344743276284E11   -2.000020123322192E1  -3.239800850748967E1  -6.835716396188635  -1.193928130040683E2  -6.866318667106110  -1.538218655176703E2  -1.820895597936461E1  -7.027306449822106E1  
 1.551466992665037E11   -2.122566926106233E1  -5.632540029161114E1  -6.804054977112859  -1.438266585090732E2  -6.851835959663021  -1.779492816940411E2  -1.968375499215637E1  -9.227092089191936E1  
 1.551589242053790E11   -2.351942598444516E1  -8.008942653737920E1  -6.815188544563862  -1.682717161891663E2  -6.857771368888505   1.577798033646687E2  -2.315836246062220E1  -1.091293432431002E2  
 1.551711491442543E11   -2.877544697456348E1  -1.041989728575413E2  -6.739866240169239   1.677612910163312E2  -6.782048023270366   1.334141185294298E2  -2.842810400146527E1  -1.097489314302758E2  
 1.551833740831296E11   -4.722970627640990E1  -2.073606804791404E1  -6.648507909736293   1.428551963675545E2  -6.681253082723893   1.092545097608486E2  -3.269568532442336E1  -6.550484545061148E1  
 1.551955990220049E11   -2.820404040502578E1   6.128547365843444  -6.611910243699729   1.177968670110443E2  -6.655931590682277   8.380195408460763E1  -2.708274912543157E1  -3.615231167438099E1  
 1.552078239608802E11   -2.331230594852616E1  -1.905809358485050E1  -6.651834276468454   9.261379740969173E1  -6.712887967553637   5.901488330113080E1  -2.299303599351822E1  -4.513758309836215E1  
 1.552200488997555E11   -2.152520522403444E1  -4.469778317995689E1  -6.707556013429492   6.789378650590004E1  -6.756247719964266   3.440560604635244E1  -2.121394555567187E1  -6.173088870523575E1  
 1.552322738386308E11   -2.107537980529745E1  -6.890481665511359E1  -6.768006086825202   4.308887031758334E1  -6.808631188586524   1.010139773412125E1  -2.102963415387587E1  -7.958181461902848E1  
 1.552444987775061E11   -2.144650491510794E1  -9.262608338446898E1  -6.845364930965405   1.888293586373061E1  -6.890233823176612  -1.437655914693496E1  -2.221598238617331E1  -9.287916961763162E1  
 1.552567237163814E11   -2.256754797261518E1  -1.184424346779071E2  -6.896879833111293  -5.048231985214017  -6.941907884095075  -3.739168219333427E1  -2.337959536788166E1  -9.695665616151882E1  
 1.552689486552567E11   -2.538417776774659E1  -1.499925266344568E2  -6.787724042747984  -2.905950263887693E1  -6.823228432267786  -6.103010437423922E1  -2.391554320502808E1  -1.017918184462222E2  
 1.552811735941320E11   -3.124906724107467E1   1.716007837518644E2  -6.690636233816128  -5.408905303635721E1  -6.724188647790438  -8.589722075455799E1  -2.524970633067685E1  -1.058862316960181E2  
 1.552933985330073E11   -4.071450681161237E1   7.882274104978563E1  -6.636942842830889  -7.885555174535553E1  -6.691608627922641  -1.110492515190552E2  -2.615918345343421E1  -1.042566672916600E2  
 1.553056234718826E11   -3.388118661222796E1  -1.761738975546188E1  -6.648557744679176  -1.037893078373037E2  -6.695044599391204  -1.359271751680286E2  -2.604706367562545E1  -1.044121386618002E2  
 1.553178484107579E11   -3.070608292443326E1  -5.369600534791323E1  -6.689182721993159  -1.289179141625248E2  -6.738642627727506  -1.607264865987506E2  -2.619908190323017E1  -1.141162340850415E2  
 1.553300733496332E11   -2.998527575425428E1  -8.118795684273317E1  -6.796644658355394  -1.538258519061247E2  -6.831919939654492   1.747697740816529E2  -2.835657604912096E1  -1.288166386147096E2  
 1.553422982885085E11   -3.102407599386050E1  -1.149673566145431E2  -6.869015969545147  -1.775954409382258E2  -6.897317369255856   1.510105551624197E2  -3.399430870861667E1  -1.222249990296749E2  
 1.553545232273839E11   -3.434248091036936E1  -1.738796807483062E2  -6.795804322830533   1.583781312383356E2  -6.835846578843210   1.270448233021466E2  -3.451017696109970E1  -8.516798548367987E1  
 1.553667481662592E11   -3.423289418443842E1   9.040900715167399E1  -6.700002330352268   1.338194831802811E2  -6.740501681692475   1.026449138459146E2  -3.252330607616312E1  -6.050105312043414E1  
 1.553789731051345E11   -2.885385489440498E1   3.135327563528962E1  -6.650240715180320   1.089991189561981E2  -6.693823998561855   7.770719983562037E1  -2.880143746037739E1  -5.160172371122057E1  
 1.553911980440098E11   -2.568868036434051E1  -2.728918214300951  -6.667562796571780   8.403478760036276E1  -6.690193169961518   5.256524406440871E1  -2.520811648180884E1  -6.060387143583802E1  
 1.554034229828851E11   -2.427453143510697E1  -2.967328293068720E1  -6.704776022364579   5.916918616996173E1  -6.736710614397530   2.783479778711586E1  -2.325472989694448E1  -7.725311675695373E1  
 1.554156479217604E11   -2.398858778686996E1  -5.345438128756749E1  -6.762627343886583   3.451851349971609E1  -6.805185349986870   3.080235078111028  -2.302599521783863E1  -9.714124313215478E1  
 1.554278728606357E11   -2.442252174287931E1  -7.470914492980772E1  -6.878760328978735   1.047364003914449E1  -6.901979053091790  -2.090763868379923E1  -2.398313019587739E1  -1.102748885586281E2  
 1.554400977995110E11   -2.608002858405311E1  -9.662374255411734E1  -6.855328105049324  -1.282215174451623E1  -6.876986139437173  -4.410951684811150E1  -2.441896490088015E1  -1.199407761068085E2  
 1.554523227383863E11   -3.055503732254307E1  -1.106917460000502E2  -6.714623150882069  -3.715630459786067E1  -6.744547806968536  -6.869036058366983E1  -2.534393368607321E1  -1.378245599454801E2  
 1.554645476772616E11   -3.597045615151953E1  -7.444027789329401E1  -6.587603666483339  -6.178367970056391E1  -6.597423239865516  -9.331445044466736E1  -2.849685286705831E1  -1.598889265093482E2  
 1.554767726161369E11   -3.014729841314260E1  -4.343026031515829E1  -6.524221042456542  -8.750042926911998E1  -6.543093740721377  -1.184166510324378E2  -3.675366754727804E1  -1.722614433576280E2  
 1.554889975550122E11   -2.606587104793918E1  -5.545861860393278E1  -6.579832130737352  -1.127703234753638E2  -6.570881816154010  -1.434792053973919E2  -3.914771690123761E1  -5.969607065870865E1  
 1.555012224938875E11   -2.409605145314541E1  -7.510408761037529E1  -6.708193423289654  -1.379529228419596E2  -6.709122223765487  -1.687823807088412E2  -3.157575478158018E1  -6.188021860582327E1  
 1.555134474327628E11   -2.309340842403834E1  -9.621228233837057E1  -6.881479768376844  -1.619111486321319E2  -6.851532910218530   1.672215709003277E2  -2.755854445398508E1  -6.710056853070275E1  
 1.555256723716381E11   -2.319067680661348E1  -1.218240037081587E2  -6.878108097694125   1.749393525881604E2  -6.873834949862504   1.435750532975757E2  -2.412352183445002E1  -8.596362604179429E1  
 1.555378973105134E11   -2.487919915363198E1  -1.487061875907352E2  -6.784942068706917   1.509393402027367E2  -6.779296002557468   1.193064943230817E2  -2.245424413757335E1  -1.126499670886371E2  
 1.555501222493887E11   -2.807047254634787E1  -1.774805703539285E2  -6.644758143470124   1.264674127558654E2  -6.648105905906526   9.493878952705391E1  -2.230734691651277E1  -1.408628833429266E2  
 1.555623471882640E11   -3.409001311553138E1   1.469092558714406E2  -6.560781755889913   1.016851843940153E2  -6.547966478611999   6.958120494261043E1  -2.316437224780502E1  -1.677836366067885E2  
 1.555745721271394E11   -4.248929688901250E1   4.886130111613939E1  -6.539728071671615   7.612198325973550E1  -6.539008133328969   4.424260244072869E1  -2.470856249970627E1   1.656749850008990E2  
 1.555867970660147E11   -3.438187170501672E1  -3.075523689144307E1  -6.622370697563563   5.115512202654271E1  -6.618569335559909   1.872920433963791E1  -2.613116828241817E1   1.403411994413815E2  
 1.555990220048900E11   -3.041860588698601E1  -6.200647100665776E1  -6.769578337025598   2.667644419210424E1  -6.753128440064758  -5.780216167650983  -2.740683576383465E1   1.069731742078583E2  
 1.556112469437653E11   -3.018475024590530E1  -8.953329030133895E1  -6.809910931056079   3.183531191943255  -6.820320854259164  -2.979601597632722E1  -3.019352985881662E1   7.078053547704737E1  
 1.556234718826406E11   -3.269016586803327E1  -1.041138987358048E2  -6.738001289759991  -2.088393296114918E1  -6.743446310678276  -5.369756007500784E1  -3.377607225563451E1   5.359201983341918E1  
 1.556356968215159E11   -3.566715059009823E1  -7.812494343137534E1  -6.666678098610792  -4.568609817201683E1  -6.679980652106223  -7.818100329659923E1  -3.418064572371691E1   6.632473777735606E1  
 1.556479217603912E11   -3.080889256518463E1  -5.965715648559182E1  -6.615274393035925  -7.052992668803191E1  -6.648248748314900  -1.033083913341317E2  -3.022645882536202E1   6.133286423761389E1  
 1.556601466992665E11   -2.671565377429503E1  -7.054018197722692E1  -6.625612698364315  -9.557284318524931E1  -6.646707167937595  -1.284197877150867E2  -2.716493677184155E1   4.479210333907118E1  
 1.556723716381418E11   -2.434014880280851E1  -8.976992262790471E1  -6.705852691140525  -1.202841653292199E2  -6.718606732980939  -1.536476018167177E2  -2.495179154937498E1   2.661775066292035E1  
 1.556845965770171E11   -2.306706724220616E1  -1.116610847318768E2  -6.858623759289017  -1.448017903865151E2  -6.865568651736513  -1.783451162815007E2  -2.318819312562923E1   1.006817806451180E1  
 1.556968215158924E11   -2.251437095629570E1  -1.365403421450589E2  -6.968309366714273  -1.686509809699869E2  -6.969655970743826   1.578222711195942E2  -2.153331735395697E1  -1.209491946072545E1  
 1.557090464547677E11   -2.303891826440292E1  -1.645875050099405E2  -6.906469226286114   1.679363950554641E2  -6.924795634378421   1.341950590389791E2  -2.125892125511678E1  -3.724188516328587E1  
 1.557212713936430E11   -2.475704387249739E1   1.644273142004094E2  -6.807131810984358   1.439282713907126E2  -6.845246563296910   1.100664007210168E2  -2.251416484348066E1  -6.068236211684506E1  
 1.557334963325183E11   -2.794315521867556E1   1.249813197182742E2  -6.707528607083681   1.190797236129122E2  -6.711117839492188   8.531653088986835E1  -2.527676274255639E1  -7.936892413733673E1  
 1.557457212713937E11   -3.216223726235663E1   6.353879944599746E1  -6.642979918618273   9.408316265656168E1  -6.666556472206133   5.957746980277737E1  -3.029510673756186E1  -8.350145689389022E1  
 1.557579462102690E11   -3.065883027590237E1  -1.797432736733177E1  -6.693103214225283   6.872558523046520E1  -6.717008043137178   3.477645400930625E1  -3.512385785486470E1  -4.570522186997972E1  
 1.557701711491443E11   -2.682050122356080E1  -7.030901728922763E1  -6.852845155587748   4.403983689382623E1  -6.876968116580069   9.568419474307337  -2.924820184487308E1  -7.721937613862432  
 1.557823960880196E11   -2.449785516024086E1  -1.079831790261407E2  -6.950425568102683   2.046165188590038E1  -6.975306302103027  -1.451962129200351E1  -2.376254164504824E1  -2.077936969574773E1  
 1.557946210268949E11   -2.387428213478251E1  -1.407350024150493E2  -6.957289167028014  -3.114803040325054  -6.983298881459404  -3.804749884368427E1  -2.157585296274277E1  -4.547153223367116E1  
 1.558068459657702E11   -2.415771338128491E1  -1.714918119332919E2  -6.909000619403382  -2.685272706404820E1  -6.926662506436965  -6.206201930501438E1  -2.138604217816750E1  -7.079891137156032E1  
 1.558190709046455E11   -2.531852286561331E1   1.585176751115526E2  -6.809069880779886  -5.099158744238753E1  -6.842426009527606  -8.635820348813584E1  -2.277616153311301E1  -9.632536639208286E1  
 1.558312958435208E11   -2.745918298649226E1   1.251932147723679E2  -6.700010310820513  -7.603712907255284E1  -6.735097315288321  -1.109044250102332E2  -2.637376220531191E1  -1.232562529794913E2  
 1.558435207823961E11   -3.144286366444990E1   8.236744430793900E1  -6.626419624674318  -1.009537637013965E2  -6.658370423177827  -1.359810688491560E2  -3.651424270394895E1  -1.655883548454555E2  
 1.558557457212714E11   -3.539270126194182E1   6.477978322750596  -6.665901068177270  -1.263870303040101E2  -6.685811050033639  -1.606597824506195E2  -3.193341800702447E1   3.825003236660933E1  
 1.558679706601467E11   -3.191101263665612E1  -7.915510253263216E1  -6.753608081173669  -1.511582162690634E2  -6.776236560882809   1.743129255314653E2  -2.401783368865100E1   9.350863122980077E-1  
 1.558801955990220E11   -2.849528464456126E1  -1.312316582095048E2  -6.784128737207391  -1.749617106502086E2  -6.803192981934780   1.501106116970890E2  -2.080931215155377E1  -2.704778887914939E1  
 1.558924205378973E11   -2.681705354959405E1  -1.701214164459923E2  -6.790019045943429   1.609725320691821E2  -6.828619762163154   1.263177374623853E2  -1.950983421435412E1  -5.154022636431395E1  
 1.559046454767726E11   -2.621153947754836E1   1.521171728363087E2  -6.753815063978587   1.364354437344083E2  -6.782437831202183   1.020392943204167E2  -1.951396081572958E1  -7.417260230327506E1  
 1.559168704156479E11   -2.634658623224050E1   1.135949472729764E2  -6.673853594155981   1.120900779532817E2  -6.702132646994920   7.753873051756345E1  -2.074973300208855E1  -9.409309216183884E1  
 1.559290953545232E11   -2.700036899666423E1   7.111731077777026E1  -6.593204269709693   8.726427006320124E1  -6.617064900639521   5.254169452279547E1  -2.327127432775730E1  -1.099557474092440E2  
 1.559413202933985E11   -2.781078307243246E1   2.186866801765698E1  -6.582355387806639   6.195783079917047E1  -6.605082874325472   2.756344463838735E1  -2.758650921328541E1  -1.124950307151747E2  
 1.559535452322738E11   -2.834917997847768E1  -3.298663466161614E1  -6.645987911284132   3.696770089077408E1  -6.674830336807191   2.932757671916567  -3.052043779086922E1  -7.301505428805284E1  
 1.559657701711491E11   -2.836176598414798E1  -8.742205318780073E1  -6.664673696947856   1.263192893909314E1  -6.695994578792746  -2.134275940897963E1  -2.492742084578874E1  -5.794653645361791E1  
 1.559779951100244E11   -2.805615317890242E1  -1.359928784803876E2  -6.679025111710479  -1.196691622363484E1  -6.710277115620959  -4.589376798960893E1  -2.173554058815612E1  -7.405280624137272E1  
 1.559902200488998E11   -2.774904308175647E1  -1.795968075263637E2  -6.687409597193060  -3.667825887510682E1  -6.709643380360524  -6.994047965750954E1  -2.067503329644129E1  -9.500522205110522E1  
 1.560024449877751E11   -2.779817611228005E1   1.385663184956226E2  -6.647681900625575  -6.119882228201774E1  -6.687930871445489  -9.437733694948088E1  -2.094514929264723E1  -1.183725253448191E2  
 1.560146699266504E11   -2.817803475472082E1   9.499355185930681E1  -6.625417172129241  -8.577136839404433E1  -6.642660259066981  -1.191100179321259E2  -2.286815268878383E1  -1.438425295943788E2  
 1.560268948655257E11   -2.891676665119657E1   4.653437585081873E1  -6.607332535008057  -1.107812083237358E2  -6.630242002741382  -1.439381493566071E2  -2.712519019270440E1  -1.747078070169980E2  
 1.560391198044010E11   -2.998151538747016E1  -1.144797287817025E1  -6.675651944087520  -1.356006201115077E2  -6.692408034976183  -1.688926132467381E2  -3.630780907010755E1   1.028983824666978E2  
 1.560513447432763E11   -3.057990953374126E1  -7.254787953261530E1  -6.720372025485751  -1.602318996510354E2  -6.738680971505080   1.666745089724534E2  -2.766842534703691E1  -6.764974773515232  
 1.560635696821516E11   -2.960695073004928E1  -1.317968050033969E2  -6.774687191369393   1.749802090110964E2  -6.787038663144903   1.425801860621366E2  -2.241395583060382E1  -4.400131726633760E1  
 1.560757946210269E11   -2.764644962950521E1  -1.797420610145255E2  -6.829430463842248   1.505225416078549E2  -6.850464771149265   1.182910376232179E2  -2.001908882845630E1  -7.244644886778927E1  
 1.560880195599022E11   -2.592392096252680E1   1.381960429208307E2  -6.859787179297885   1.265546793485840E2  -6.874144256001181   9.404528873607423E1  -1.910171597915997E1  -9.884998254915288E1  
 1.561002444987775E11   -2.440034833464858E1   1.014672156650883E2  -6.827677080616364   1.023138576623624E2  -6.863527343553739   6.994403204371086E1  -1.929006680592099E1  -1.254754005185190E2  
 1.561124694376528E11   -2.328966448009817E1   6.493348014464142E1  -6.801408807278135   7.811086367590855E1  -6.823723844201332   4.585325801192894E1  -2.054370454782988E1  -1.528483360722624E2  
 1.561246943765281E11   -2.325023932250599E1   3.008319574631503E1  -6.759508913011246   5.352997801884126E1  -6.783530418691898   2.156724108803343E1  -2.327066872159803E1   1.768055192477606E2  
 1.561369193154034E11   -2.414749978614271E1  -2.138930406572011  -6.700902910953101   2.907831080139294E1  -6.710976169369502  -2.494051561771237  -2.866119110002886E1   1.387721755678784E2  
 1.561491442542787E11   -2.577112327914527E1  -3.081800886468834E1  -6.640899801926729   4.326091822180141  -6.669675022411015  -2.761919088630005E1  -3.714226264583520E1   5.649249589975808E1  
 1.561613691931540E11   -2.880583556808842E1  -5.615826417838017E1  -6.617023756977756  -2.082867373842193E1  -6.635836804693515  -5.220478207235383E1  -3.194442094977446E1  -4.257052347450352E1  
 1.561735941320293E11   -3.500482520630806E1  -7.492863701411197E1  -6.644697551174533  -4.556935339749200E1  -6.652526619431090  -7.669190577717055E1  -2.840945523861858E1  -8.424802181490966E1  
 1.561858190709046E11   -4.154342690885166E1  -3.679301292477120E-2  -6.644784595602535  -7.039483653752232E1  -6.664610349517256  -1.012351364156670E2  -2.827696407918696E1  -1.166120887947894E2  
 1.561980440097799E11   -3.117529485334157E1   1.065765595481946E1  -6.647474298182778  -9.515753670884332E1  -6.660344194240599  -1.260667106712373E2  -3.038041876015051E1  -1.551043641380303E2  
 1.562102689486553E11   -2.662269206369896E1  -1.398417120008820E1  -6.680822118219593  -1.199885458828965E2  -6.700071498230162  -1.508497138545310E2  -3.534753797329703E1   1.334804405258126E2  
 1.562224938875306E11   -2.461719084709219E1  -4.380006378265212E1  -6.717802621216899  -1.444653519434206E2  -6.743957734181331  -1.750356175397531E2  -3.035628214493358E1   4.024992517446079E1  
 1.562347188264059E11   -2.421093050711892E1  -7.287542468623262E1  -6.727353202116522  -1.690856251819450E2  -6.746358986255667   1.600619631914671E2  -2.506067689260161E1  -4.895493752983430  
 1.562469437652812E11   -2.483794956780376E1  -1.025180911201898E2  -6.753466110150009   1.667658803153247E2  -6.777071459567571   1.353594617569116E2  -2.208563698574093E1  -3.639361089379791E1  
 1.562591687041565E11   -2.649907917176672E1  -1.349145980917672E2  -6.790587615920338   1.424129405827606E2  -6.804591760787073   1.109546450791327E2  -2.062780251310089E1  -6.462257548888469E1  
 1.562713936430318E11   -2.962134320457743E1  -1.776882276093787E2  -6.782443375621102   1.184231077365926E2  -6.823625226009869   8.670082190258647E1  -2.039099435945288E1  -8.979273349897196E1  
 1.562836185819071E11   -3.224318191667494E1   1.118966378801763E2  -6.769877486043932   9.389655822014851E1  -6.786242213505433   6.239014331514388E1  -2.114320342510510E1  -1.144024848785407E2  
 1.562958435207824E11   -2.928263795060272E1   3.414260931171245E1  -6.729211374937839   6.931399477441327E1  -6.761089322583502   3.786069245958337E1  -2.338392107446670E1  -1.365901782242044E2  
 1.563080684596577E11   -2.564128560774503E1  -1.340557252513722E1  -6.722683305699629   4.466706308738404E1  -6.749284717282849   1.351780709463385E1  -2.794251305376026E1  -1.540490809257539E2  
 1.563202933985330E11   -2.368388091193820E1  -4.746891400616110E1  -6.689989889948682   2.045278647919158E1  -6.733467810477981  -1.150807778625084E1  -3.681347851746521E1  -1.309425681023698E2  
 1.563325183374083E11   -2.256513651343626E1  -7.679714070683419E1  -6.699534154965201  -4.394550967594517  -6.717068286830537  -3.599110519760863E1  -3.035733402120846E1  -7.566074068735188E1  
 1.563447432762836E11   -2.247112210951876E1  -1.039881191136749E2  -6.703910292436618  -2.933197298684747E1  -6.743800159839331  -6.060910397233017E1  -2.606162823318035E1  -8.965104762778090E1  
 1.563569682151589E11   -2.342017143054819E1  -1.311682979449292E2  -6.730564988932983  -5.366574770338394E1  -6.764898437235033  -8.530131181879609E1  -2.450001759109932E1  -1.133921098741595E2  
 1.563691931540342E11   -2.560219457229343E1  -1.569219372776413E2  -6.732282436463091  -7.793878559505446E1  -6.747763278465381  -1.098262587665000E2  -2.496983587391462E1  -1.385985769491124E2  
 1.563814180929096E11   -3.068373343951722E1  -1.775289055783785E2  -6.696103681075181  -1.027673647643699E2  -6.726039469500845  -1.344180943183714E2  -2.778586347946263E1  -1.711965866851682E2  
 1.563936430317849E11   -4.001230938188512E1  -1.172167727025739E2  -6.699800546987533  -1.272644200074277E2  -6.725436632199132  -1.590933100907257E2  -3.452594135247248E1   1.270122864620290E2  
 1.564058679706602E11   -3.034188281269584E1  -9.376728848118886E1  -6.695076714524613  -1.519324856181673E2  -6.720275775448729   1.763630537625712E2  -3.050050527310125E1   1.083570145945605E1  
 1.564180929095355E11   -2.573648540234338E1  -1.119795242262003E2  -6.731462459919621  -1.770714236751985E2  -6.747243164230181   1.514433236294566E2  -2.399225419346243E1  -3.474623778733561E1  
 1.564303178484108E11   -2.324029610131311E1  -1.352257442478321E2  -6.801491704508572   1.583332299996425E2  -6.823194542954018   1.266637093995053E2  -2.057531296277486E1  -6.663169260744770E1  
 1.564425427872861E11   -2.192092930221821E1  -1.604043026813625E2  -6.900035551815983   1.336653127484136E2  -6.909396663418263   1.022283449667335E2  -1.879441814575657E1  -9.533378425318702E1  
 1.564547677261614E11   -2.152402094197042E1   1.722571371248270E2  -6.976093456154806   1.099721890736340E2  -6.985304418577545   7.784969775174623E1  -1.818544379564910E1  -1.230589771536256E2  
 1.564669926650367E11   -2.203702506942179E1   1.421174115703070E2  -7.005673010367758   8.644612771664041E1  -7.023873551844059   5.409059948901246E1  -1.843781845136490E1  -1.510636438384017E2  
 1.564792176039120E11   -2.375734981428670E1   1.098473957579238E2  -6.943158464149614   6.276079042622198E1  -6.979664408174429   3.007994964841656E1  -1.974105750277334E1   1.798626025023227E2  
 1.564914425427873E11   -2.672185596726303E1   7.562323363370921E1  -6.851171361649065   3.880777978496359E1  -6.866923615925301   6.171297098259885  -2.256554349940486E1   1.462217896471768E2  
 1.565036674816626E11   -3.086693792842531E1   2.962820581154260E1  -6.728586696760007   1.395563514522801E1  -6.767510455909634  -1.863617080309757E1  -2.765084057323614E1   1.011411309905186E2  
 1.565158924205379E11   -3.388179182569231E1  -4.760319107767289E1  -6.680355373208995  -1.102279179791099E1  -6.706169071771246  -4.397918775158882E1  -3.258654981197110E1   4.933251962039927  
 1.565281173594132E11   -3.042976840254260E1  -1.190200794454694E2  -6.702714456128133  -3.608296492251521E1  -6.699533511239146  -6.890397457315734E1  -2.649731279788773E1  -7.338746728664577E1  
 1.565403422982885E11   -2.748242070578426E1  -1.650383914796233E2  -6.750432941664875  -6.101515527654647E1  -6.774148757374697  -9.404728138258493E1  -2.273563422723545E1  -1.144967232469825E2  
 1.565525672371638E11   -2.587992758353679E1   1.574561690218552E2  -6.822032105363407  -8.534167551969455E1  -6.841300811831344  -1.184324083574248E2  -2.116494517303666E1  -1.489427007518319E2  
 1.565647921760391E11   -2.600981920638922E1   1.208972384514946E2  -6.834473302312612  -1.092956721637970E2  -6.866781359830287  -1.425176129815697E2  -2.068574937351787E1   1.781104153585791E2  
 1.565770171149144E11   -2.725798600897016E1   8.561641653946805E1  -6.814132777727427  -1.334242377684262E2  -6.856168224535910  -1.664606952715805E2  -2.125828504145478E1   1.437697481263452E2  
 1.565892420537897E11   -2.969977960143851E1   4.963582945317850E1  -6.759491105269642  -1.577105022977145E2  -6.800244760954056   1.689504915635753E2  -2.264671719801499E1   1.064453893448768E2  
 1.566014669926650E11   -3.286653330745845E1  -2.156555741159436  -6.707434781637574   1.775992534322925E2  -6.725876431283087   1.442636161789054E2  -2.509506426854809E1   6.206173584281507E1  
 1.566136919315403E11   -3.416485089269312E1  -7.630216434285929E1  -6.688412802973733   1.530210731170832E2  -6.689891540298253   1.195380920662420E2  -2.799012525659721E1   6.013983292739768  
 1.566259168704157E11   -3.104663794342320E1  -1.419633450383057E2  -6.686843397281123   1.281485475441047E2  -6.706819501895467   9.431525270690527E1  -2.888767003712562E1  -6.650464153818994E1  
 1.566381418092910E11   -2.889627293649973E1   1.731935847965663E2  -6.733789245298725   1.029590455791834E2  -6.749415571601917   6.985059254320794E1  -2.724549271886167E1  -1.315041803269233E2  
 1.566503667481663E11   -2.861661059294899E1   1.379319029206257E2  -6.781757046363142   7.889731902160422E1  -6.796156694595475   4.562816302756285E1  -2.533327037777677E1   1.771251929554860E2  
 1.566625916870416E11   -2.909638727889182E1   1.116870233223504E2  -6.748257144247284   5.495364977218772E1  -6.779581637269086   2.146988493714712E1  -2.390139210739551E1   1.303353417554037E2  
 1.566748166259169E11   -2.986201786342866E1   8.694705876165051E1  -6.674085424584432   3.081030123781264E1  -6.702426797534888  -3.180928896919516  -2.294009499996390E1   8.620226049536481E1  
 1.566870415647922E11   -3.282887890412034E1   5.881923763599654E1  -6.614342344627131   6.015594973000932  -6.649466031985455  -2.771505295602355E1  -2.237917013724511E1   4.334877069836211E1  
 1.566992665036675E11   -4.090577704838952E1   2.901153233509469E1  -6.579327246238352  -1.895798592846425E1  -6.622396962194215  -5.276140213965963E1  -2.200702184828372E1   1.187210144605327  
 1.567114914425428E11   -4.203867347074625E1  -1.735062311616163E2  -6.586356309266052  -4.408275729359684E1  -6.628629015239281  -7.794987100645449E1  -2.230868806273567E1  -4.162236866750909E1  
 1.567237163814181E11   -3.299448692636931E1   1.539745083941007E2  -6.629967158998114  -6.923038818746400E1  -6.667651173431585  -1.027638596406533E2  -2.322402732213432E1  -8.594401516422576E1  
 1.567359413202934E11   -2.999036631428008E1   1.223721890962054E2  -6.710416830537931  -9.367935259444089E1  -6.758869001621308  -1.274077338262490E2  -2.452207898954193E1  -1.345632020232009E2  
 1.567481662591687E11   -2.943035264304602E1   1.022353536357122E2  -6.735002118929714  -1.178632255532838E2  -6.777431836016803  -1.513425695366485E2  -2.566323220805798E1   1.708431270893681E2  
 1.567603911980440E11   -2.924359608831541E1   8.399327317327982E1  -6.713585974970646  -1.420167375238565E2  -6.765797927941456  -1.757348832223709E2  -2.560728074178473E1   1.121795095815242E2  
 1.567726161369193E11   -3.032277922300042E1   6.235758840790547E1  -6.698692542630597  -1.668580962994899E2  -6.734823831401664   1.594953151525584E2  -2.419005131821827E1   5.585999128987095E1  
 1.567848410757946E11   -3.484715673411313E1   3.963574617189217E1  -6.672036705846503   1.680217444942557E2  -6.715114694632053   1.349245613687134E2  -2.270004277260242E1   6.667172832350300  
 1.567970660146699E11   -5.004662894626519E1   1.112443403507252E2  -6.702952874580288   1.434668934099592E2  -6.735444428175975   1.099998413046918E2  -2.163497565456682E1  -3.756241499540039E1  
 1.568092909535452E11   -3.222061554172844E1   1.519688134827478E2  -6.759963835022075   1.185284968964494E2  -6.799999308744452   8.512589913461468E1  -2.119670314354720E1  -8.026356771124850E1  
 1.568215158924205E11   -2.622684546070270E1   1.279777100872494E2  -6.867350143683989   9.422115526893890E1  -6.900238031317766   6.083698875378033E1  -2.111568792178085E1  -1.239533396065051E2  
 1.568337408312958E11   -2.343819521772235E1   1.043297279531777E2  -6.944661772142051   6.992603688463692E1  -6.967082980298091   3.667775596518298E1  -2.106343494396390E1  -1.686531587817508E2  
 1.568459657701711E11   -2.170053272886116E1   8.306033355384349E1  -6.954304421991918   4.599321529947876E1  -6.977795400969391   1.278899606687554E1  -2.065417194909480E1   1.459498042527115E2  
 1.568581907090465E11   -2.062508469102756E1   6.235032834403138E1  -6.923375204683675   2.186091558507220E1  -6.926224244828456  -1.093223092608103E1  -1.995360412028594E1   1.026467541659156E2  
 1.568704156479218E11   -2.033117294575888E1   4.179064965861825E1  -6.874745578652881  -1.945252760844173  -6.876450989627868  -3.552214780209285E1  -1.919560533682281E1   6.189705208538940E1  
 1.568826405867971E11   -2.073244823260711E1   2.290873796400000E1  -6.801762022106953  -2.637418445921344E1  -6.815243358460913  -5.963278929663903E1  -1.879548656324780E1   2.465231177568395E1  
 1.568948655256724E11   -2.184079564565572E1   7.864508065198921  -6.740620392710171  -5.141722022143721E1  -6.763507220737869  -8.424596231176351E1  -1.900664444897317E1  -1.052947375323903E1  
 1.569070904645477E11   -2.310507527507853E1  -2.555161764013851E-1  -6.734915551122835  -7.614492991328069E1  -6.757013206052758  -1.090570208746704E2  -1.999556116422050E1  -4.280772674500445E1  
 1.569193154034230E11   -2.321611780519890E1  -2.814926472573073  -6.735721906263086  -1.005170701564482E2  -6.748671652050263  -1.335481611741922E2  -2.180218375447637E1  -7.296426207337019E1  
 1.569315403422983E11   -2.262344378874122E1  -8.080343500057962  -6.695585264092578  -1.251095506085328E2  -6.705406420046974  -1.581352816289958E2  -2.455160292179655E1  -1.031134398655000E2  
 1.569437652811736E11   -2.184233518294314E1  -1.796848448233338E1  -6.646315708453956  -1.498165009243249E2  -6.661448987936542   1.773118000401704E2  -2.904068109115585E1  -1.352234840172218E2  
 1.569559902200489E11   -2.090161393172269E1  -3.319706309615666E1  -6.611440140497244  -1.746704584617008E2  -6.636810346560840   1.521956881002806E2  -3.657375811350920E1  -1.738732030369070E2  
 1.569682151589242E11   -2.054806192389235E1  -5.228790071490884E1  -6.623409179143414   1.602163337277494E2  -6.635390333824921   1.274548084114463E2  -5.721510996790526E1   8.045200141165682E1  
 1.569804400977995E11   -2.084492816800411E1  -7.589014228769690E1  -6.671782022436175   1.350654691540700E2  -6.682377887428996   1.020601108007177E2  -4.557359831954427E1  -5.884995518281285E1  
 1.569926650366748E11   -2.202442943623970E1  -9.961407478823914E1  -6.763916511361148   1.100419167488063E2  -6.776567726637025   7.775526739172841E1  -4.123824743891019E1  -1.709153794754660E2  
 1.570048899755501E11   -2.411882000342624E1  -1.225542197502870E2  -6.877686210988114   8.559296380307795E1  -6.886720663090665   5.364895035587137E1  -3.217679173828994E1   1.216556611251082E2  
 1.570171149144254E11   -2.621200152083564E1  -1.484233950223513E2  -6.897248313743837   6.189871670144633E1  -6.889791845985138   2.968240533832604E1  -2.611526957373797E1   8.355343634938322E1  
 1.570293398533007E11   -2.882826314553329E1   1.754028553377962E2  -6.867616727420542   3.745669410130321E1  -6.874575201180313   5.222834188407908  -2.279100544222157E1   5.638662592212458E1  
 1.570415647921760E11   -3.231708080071981E1   1.257080561686757E2  -6.826045437786285   1.311764119333522E1  -6.831904421055795  -1.933642154826029E1  -2.047092276342715E1   2.952634650356362E1  
 1.570537897310513E11   -3.395208895746108E1   5.894547146432102E1  -6.808556843583260  -1.159573635728848E1  -6.814707467865171  -4.371690912062551E1  -1.916529655159127E1   4.941732937188694  
 1.570660146699266E11   -3.292421911918788E1   8.601167448979307  -6.814304494627880  -3.627317260024461E1  -6.819451290676653  -6.880621576810900E1  -1.894103295066425E1  -1.964838731965666E1  
 1.570782396088019E11   -3.311583832935605E1  -2.371654545937380E1  -6.833898152298588  -6.109826020397674E1  -6.858274424733629  -9.316373669975498E1  -1.971623101918670E1  -4.142705783282097E1  
 1.570904645476773E11   -3.348848506560325E1  -4.411993001880170E1  -6.894289231015466  -8.516282405749327E1  -6.887739628279618  -1.174534736878758E2  -2.171882252314024E1  -6.024939635978854E1  
 1.571026894865526E11   -3.484096538541093E1  -6.753105216920990E1  -6.887375966437592  -1.095026027907034E2  -6.889550963773479  -1.415844021297186E2  -2.504335061510743E1  -6.749352415177008E1  
 1.571149144254279E11   -4.136159602583423E1  -8.093936006521037E1  -6.834513634209962  -1.341140544996482E2  -6.855484416956148  -1.657874549815659E2  -2.772692634642744E1  -4.880744611540548E1  
 1.571271393643032E11   -4.191183940884302E1   4.319321726715246E-1  -6.807081112905012  -1.587473824772204E2  -6.815918449399138   1.695177779946603E2  -2.534505983650119E1  -3.207212742018304E1  
 1.571393643031785E11   -3.410476429552509E1  -5.760536929672300  -6.778945628883091   1.765181573783813E2  -6.814849406654361   1.448811066904913E2  -2.224378567744959E1  -3.765085923245837E1  
 1.571515892420538E11   -3.151633643337324E1  -2.831766355302706E1  -6.811428784612176   1.516242700659503E2  -6.838255115858232   1.199288871466546E2  -2.067497078981577E1  -5.408986289445326E1  
 1.571638141809291E11   -3.059480125724192E1  -4.866587220893833E1  -6.856110833678564   1.272271101426924E2  -6.860774107634445   9.530208231317008E1  -2.047671554601469E1  -7.349990602784573E1  
 1.571760391198044E11   -3.182743195498732E1  -6.708827474277516E1  -6.919935074886266   1.026589528923317E2  -6.944491577198955   7.123716961436043E1  -2.175980191667368E1  -9.050812657123419E1  
 1.571882640586797E11   -3.400116187519589E1  -7.333854272936647E1  -6.944010087709138   7.856357908919881E1  -6.961752326826533   4.725794630893540E1  -2.391843270336195E1  -9.929546513352040E1  
 1.572004889975550E11   -3.584229376350721E1  -6.039476689121093E1  -6.875779808937703   5.475202990635450E1  -6.886023570946526   2.266643225930588E1  -2.593938719110511E1  -9.845438143295164E1  
 1.572127139364303E11   -3.331760620123463E1  -3.662491858533399E1  -6.808303257168595   3.019814991850683E1  -6.824224437558642  -2.258632650725498  -2.680625907488891E1  -8.941818469629460E1  
 1.572249388753056E11   -2.889526042176338E1  -4.125290072369059E1  -6.772466008878958   4.986012438693262  -6.806791915218004  -2.707335210272001E1  -2.523953060430491E1  -8.543464886253486E1  
 1.572371638141809E11   -2.581651032988225E1  -5.962788937468362E1  -6.795803982734178  -1.996184442573328E1  -6.841211098595629  -5.206477380588281E1  -2.357478323056802E1  -9.732529966170691E1  
 1.572493887530562E11   -2.424988981794181E1  -8.146694302836932E1  -6.901015862968004  -4.534047130868895E1  -6.941739870248081  -7.675360987704352E1  -2.286652637118827E1  -1.198398426024228E2  
 1.572616136919316E11   -2.341247254931505E1  -1.021915561009363E2  -7.031349897538343  -6.943829381425145E1  -7.061914027426606  -1.011567780790430E2  -2.390171296370051E1  -1.507686946564145E2  
 1.572738386308069E11   -2.268153168787402E1  -1.234904064039364E2  -7.070991278872243  -9.331904650675050E1  -7.105608320520889  -1.250124470807571E2  -2.658322832776786E1   1.704210269000102E2  
 1.572860635696822E11   -2.235774199582587E1  -1.488088720209479E2  -7.035410145984386  -1.170438148136045E2  -7.051800855617357  -1.488291259439346E2  -2.898714701572201E1   1.136474882043292E2  
 1.572982885085575E11   -2.315831092879399E1  -1.742383912884744E2  -6.989280249015582  -1.412983495077425E2  -7.017952473621760  -1.735916600581483E2  -2.689743173023582E1   4.980339314975220E1  
 1.573105134474328E11   -2.475299295182869E1   1.610854290489812E2  -6.949429665412611  -1.658676718030570E2  -6.967432291010787   1.623187394277717E2  -2.345038216584315E1   4.426936061166379  
 1.573227383863081E11   -2.749255253614278E1   1.422578842321108E2  -6.893265323567932   1.696264912097233E2  -6.913449625771553   1.372442450571855E2  -2.114211253716405E1  -2.952338973945180E1  
 1.573349633251834E11   -3.078116163062464E1   1.334758809286253E2  -6.887753105130815   1.448036225704189E2  -6.916207862192651   1.123806499860477E2  -2.007740744106739E1  -6.059260167308678E1  
 1.573471882640587E11   -3.276854959560519E1   1.384056052690262E2  -6.968605840000917   1.199570799481182E2  -7.007845221875665   8.793935032751762E1  -2.049411776174830E1  -9.147835854180435E1  
 1.573594132029340E11   -3.361570118479095E1   1.427920007167988E2  -7.037738772972985   9.612336629041924E1  -7.055756366042322   6.379084332365939E1  -2.255013971886626E1  -1.192655737057503E2  
 1.573716381418093E11   -3.100687394062253E1   1.456377736661190E2  -6.969091631982703   7.197621635403922E1  -6.998196559509950   3.980836526827580E1  -2.602671476662957E1  -1.424809549123563E2  
 1.573838630806846E11   -2.881017306501970E1   1.278810624465342E2  -6.892831813797489   4.727254588042030E1  -6.932427983724427   1.534944624702426E1  -3.254886760356073E1  -1.705070120670606E2  
 1.573960880195599E11   -2.795825750091907E1   1.020088275582721E2  -6.878294486772179   2.234942001118953E1  -6.910757112100633  -9.459654331161891  -4.293524497809229E1   1.901505453370036E1  
 1.574083129584352E11   -2.888636413855167E1   7.318823012824645E1  -6.869852660278096  -2.193587664343865  -6.893465375198018  -3.461245772271641E1  -2.893015964898406E1  -3.106105969470669E1  
 1.574205378973105E11   -3.161515250107416E1   4.167867328285993E1  -6.958410537345950  -2.723874398426449E1  -6.981979775422677  -5.928417620461763E1  -2.506398421327699E1  -6.297458018628260E1  
 1.574327628361858E11   -3.614809687726579E1   1.386335017994970E1  -7.063419831684139  -5.143138323491237E1  -7.110529373406626  -8.388031771314539E1  -2.434007185377231E1  -9.443563656897275E1  
 1.574449877750611E11   -4.388274531717195E1  -5.948893123787278E1  -7.175521897022719  -7.510215862674329E1  -7.182078218564207  -1.074929321148826E2  -2.588728274988046E1  -1.227191275346945E2  
 1.574572127139364E11   -3.670331155751010E1  -1.654546844544042E2  -7.081349818181024  -9.836203817432092E1  -7.110463929545380  -1.314038794017921E2  -2.902643819960766E1  -1.432521797404478E2  
 1.574694376528117E11   -3.011835433764848E1   1.504309185143557E2  -6.983518782273142  -1.225559233620861E2  -6.998631631453223  -1.554745810133865E2  -3.308860753337549E1  -1.792234196592754E2  
 1.574816625916870E11   -2.710530076157835E1   1.175865383855187E2  -6.916973229270575  -1.471273351216416E2  -6.936878690667128   1.796605630734476E2  -3.660238189932515E1   8.689847697298086E1  
 1.574938875305624E11   -2.548451542208250E1   8.940654871593648E1  -6.858954559092060  -1.718470239281350E2  -6.875772357992066   1.556574315527906E2  -2.974669979140412E1   1.618966609862986E1  
 1.575061124694377E11   -2.507111988619223E1   6.361683080381447E1  -6.845538464913737   1.633693841082310E2  -6.855103016231512   1.306330972679304E2  -2.582636822881471E1  -2.322298688643714E1  
 1.575183374083130E11   -2.532443524229532E1   3.976094725235075E1  -6.868386370943441   1.387181695895903E2  -6.879100101830735   1.055041251073248E2  -2.452443401332502E1  -5.485815359368731E1  
 1.575305623471883E11   -2.638699056142390E1   1.419491900884376E1  -6.912274013191100   1.146188081625490E2  -6.922436417583941   8.110565621226090E1  -2.579997348150151E1  -8.164663606257423E1  
 1.575427872860636E11   -2.902320311298767E1  -1.315918273381031E1  -6.845893011741009   9.086621631959386E1  -6.866135452197869   5.721332130670594E1  -2.825062569723962E1  -8.914091393309711E1  
 1.575550122249389E11   -3.496181108425565E1  -3.159764441357589E1  -6.728610565843509   6.595111693904619E1  -6.743407475718645   3.270787140992522E1  -2.970807751064879E1  -8.860091480811326E1  
 1.575672371638142E11   -4.408210856344399E1   6.165062097045895  -6.673239209776529   4.135301299044342E1  -6.681670268555268   7.789789509849598  -3.150093506621195E1  -8.068814751645240E1  
 1.575794621026895E11   -3.623154110468697E1   5.089739561243323E1  -6.660759336078272   1.588005976584176E1  -6.644077856413923  -1.712129751988842E1  -3.024004207226459E1  -6.359506429078395E1  
 1.575916870415648E11   -3.300712485455085E1   3.527769742976478E1  -6.666719597363661  -8.799369747381896  -6.661237210806548  -4.240807391601431E1  -2.710671800384566E1  -6.534764482211419E1  
 1.576039119804401E11   -3.236827335104726E1   1.685702539300625E1  -6.729169343399916  -3.397493238606538E1  -6.729019686017821  -6.764876565640525E1  -2.507325636376016E1  -8.302948264415367E1  
 1.576161369193154E11   -3.325444194287800E1  -2.789458807972058  -6.870535436739699  -5.878487529576379E1  -6.844532303487769  -9.208237985433664E1  -2.485414646289424E1  -1.109578964223081E2  
 1.576283618581907E11   -3.558392444641488E1  -2.993361821698409E1  -6.909502203428747  -8.220347959637908E1  -6.891827963012442  -1.158785979204040E2  -2.756455479621455E1  -1.386926703940956E2  
 1.576405867970660E11   -4.352308993201545E1  -1.082806077504308E2  -6.838673520465172  -1.063557872401563E2  -6.823711270247526  -1.396332177718819E2  -3.215664845827779E1  -1.617978199462516E2  
 1.576528117359413E11   -3.616973130501641E1   1.340008042976749E2  -6.756647875825103  -1.306063436296840E2  -6.759914001650583  -1.639258427173169E2  -3.861768555602885E1   1.464365920258897E2  
 1.576650366748166E11   -3.008589597943501E1   9.855570265071728E1  -6.707900922289635  -1.555517981407336E2  -6.719759468029125   1.707349115633062E2  -3.478223822097607E1   4.818385877753303E1  
 1.576772616136919E11   -2.708328536524870E1   7.360218762163450E1  -6.690507317608688   1.798151263465006E2  -6.694528193452809   1.463068115377609E2  -2.839786418488956E1   4.325277427142098  
 1.576894865525672E11   -2.526111541604423E1   5.343838373518836E1  -6.716998217754604   1.550190915643798E2  -6.731242414041861   1.212759066519269E2  -2.530652185612254E1  -2.653126655599575E1  
 1.577017114914425E11   -2.437230261052865E1   3.336295502722877E1  -6.792358450767956   1.301332336318469E2  -6.802066140345643   9.680949158052039E1  -2.493057013673156E1  -5.150610458054992E1  
 1.577139364303178E11   -2.423218364433004E1   1.267464963964410E1  -6.822264114673279   1.062609888231211E2  -6.844249567232113   7.303213180883675E1  -2.598432893750864E1  -6.165724369739299E1  
 1.577261613691932E11   -2.520104049152823E1  -3.803542578551625  -6.745141763277276   8.229416763996301E1  -6.768705846559016   4.894902733086800E1  -2.520014684763529E1  -6.425842765892406E1  
 1.577383863080685E11   -2.700220741166389E1  -1.302303396700814E1  -6.657114202860496   5.763728410207396E1  -6.669001835867738   2.442936846318748E1  -2.455159033720802E1  -7.535054281279467E1  
 1.577506112469438E11   -2.844805136637764E1  -1.326520973457197E1  -6.594866343929487   3.295408395247661E1  -6.608662503255808  -5.882925446869420E-1  -2.495237847337256E1  -8.730544091524848E1  
 1.577628361858191E11   -2.887965972179856E1  -7.725058623475385  -6.556779187092965   7.757874856050846  -6.598070720298763  -2.570715493687074E1  -2.588494423049091E1  -9.233810137541767E1  
 1.577750611246944E11   -2.789318405078294E1  -5.352524431216231  -6.590098124111179  -1.774014717505508E1  -6.636280383611831  -5.071843231245487E1  -2.601118140713005E1  -9.640539974544818E1  
 1.577872860635697E11   -2.625473340321932E1  -8.915894267499581  -6.713611029522674  -4.235125861665735E1  -6.748998778752958  -7.544799901339336E1  -2.605236944237345E1  -1.099587852142982E2  
 1.577995110024450E11   -2.503720628527132E1  -2.169978805461304E1  -6.793376611638052  -6.580537241199860E1  -6.821377956879097  -9.929336091118097E1  -2.961804856614748E1  -1.278671883671151E2  
 1.578117359413203E11   -2.492056583509049E1  -4.053169880804603E1  -6.733220190765438  -8.989857990168292E1  -6.767069865525935  -1.231650975951819E2  -3.538985281682548E1  -9.640726152215794E1  
 1.578239608801956E11   -2.606139677678494E1  -5.651774943449374E1  -6.630047604048536  -1.146159863669901E2  -6.679526665944217  -1.473421470587942E2  -3.098220312617951E1  -6.915399021238086E1  
 1.578361858190709E11   -2.843539516164571E1  -6.879754747168833E1  -6.581594090291286  -1.396829934422133E2  -6.618679693088344  -1.721683368707848E2  -2.878899399160349E1  -7.434433932931897E1  
 1.578484107579462E11   -3.129402303924959E1  -7.276382584472501E1  -6.528126695575698  -1.645172665062822E2  -6.570490825208527   1.627799475865662E2  -2.790431086094522E1  -7.860336962823497E1  
 1.578606356968215E11   -3.520122607337530E1  -5.582609241521887E1  -6.573517552442226   1.702181924007005E2  -6.605541099224945   1.375945105412934E2  -2.660770773230944E1  -8.001626343506992E1  
 1.578728606356968E11   -3.334514331595135E1  -2.441407411126754E1  -6.690714201734851   1.451994191499461E2  -6.712644206040831   1.126668999529572E2  -2.532958480236948E1  -9.403491288397699E1  
 1.578850855745721E11   -2.912590556822629E1  -2.787770884854650E1  -6.812479052021680   1.213048121160404E2  -6.842940058308929   8.916178482829810E1  -2.651014950751750E1  -1.129487233026975E2  
 1.578973105134475E11   -2.772379866296679E1  -4.685168363584891E1  -6.761220156472676   9.771848299313054E1  -6.804885708459416   6.573134225149674E1  -3.026575109325419E1  -1.088412339596974E2  
 1.579095354523228E11   -2.824977826827295E1  -6.450117109732059E1  -6.640510249828453   7.329761579704658E1  -6.688840422619934   4.110837576240895E1  -2.961493310676003E1  -8.714957135176395E1  
 1.579217603911981E11   -3.002431836622013E1  -7.979108924404112E1  -6.575604974030760   4.824823716465748E1  -6.608394454529837   1.637992446809063E1  -2.689361484238128E1  -9.087686571580336E1  
 1.579339853300734E11   -3.311391561660471E1  -8.707602057693960E1  -6.532277352947774   2.362831079642660E1  -6.577540317248841  -8.447024573486203  -2.614437271243330E1  -1.017595422207408E2  
 1.579462102689487E11   -3.808403456254068E1  -7.521808670150712E1  -6.529174338240903  -1.806760967382471  -6.565664969037581  -3.324918987092427E1  -2.623289440072197E1  -1.133595105420607E2  
 1.579584352078240E11   -3.679311559122088E1  -2.624941089188231E1  -6.587002227711508  -2.629758679332955E1  -6.619199067680830  -5.865418144641519E1  -2.685518069965988E1  -1.250279793561144E2  
 1.579706601466993E11   -3.064827315187601E1  -2.320440284067657E1  -6.657472664002865  -5.071219029700571E1  -6.707774998749424  -8.276301027635441E1  -2.889595577490415E1  -1.391909522912753E2  
 1.579828850855746E11   -2.793107782817412E1  -4.377244069454212E1  -6.682936553521591  -7.535371484341292E1  -6.704636742489225  -1.064914692463579E2  -3.526387788284195E1  -1.402670754785128E2  
 1.579951100244499E11   -2.743341715875889E1  -6.642086828445075E1  -6.625106586201657  -9.956895587792492E1  -6.670447488227518  -1.313150491364058E2  -3.403879060188680E1  -8.113958483771066E1  
 1.580073349633252E11   -2.810430315696636E1  -8.962269564089296E1  -6.595219229307023  -1.240049314119072E2  -6.623743221243931  -1.559413557346632E2  -2.875497532006787E1  -8.198129283234458E1  
 1.580195599022005E11   -3.034903533410449E1  -1.122909969153801E2  -6.587962842677990  -1.486505855042128E2  -6.591625583898535   1.792815402367391E2  -2.656344414054113E1  -9.671426520414487E1  
 1.580317848410758E11   -3.488682586065729E1  -1.389510161926484E2  -6.588692991623899  -1.736730049345328E2  -6.626039554896732   1.543937176150971E2  -2.562820406039844E1  -1.125705493967171E2  
 1.580440097799511E11   -4.527815175447494E1   1.195072389385430E2  -6.641109817782197   1.613728751849273E2  -6.678526981124369   1.295112056754128E2  -2.555888333123444E1  -1.282513448057497E2  
 1.580562347188264E11   -3.297982797489476E1   2.112532451459182E1  -6.737564557663961   1.368880248586673E2  -6.772152364315983   1.050036246420674E2  -2.641697624576957E1  -1.495426810860521E2  
 1.580684596577017E11   -2.833796953188672E1  -1.307133729564839E1  -6.738701106795347   1.135043435797000E2  -6.784353813012894   8.126975763794597E1  -2.982489775504775E1  -1.745814533747512E2  
 1.580806845965770E11   -2.642378791126799E1  -4.041331160823999E1  -6.700210816442517   8.926631256558883E1  -6.744855744885983   5.698171647931806E1  -3.865638563593624E1   1.782506802264774E2  
 1.580929095354523E11   -2.597500750689800E1  -6.109051502171306E1  -6.669933073722937   6.464482420473435E1  -6.702936246716455   3.222552033002766E1  -3.912546836918227E1  -8.524004368674478E1  
 1.581051344743276E11   -2.630471160189174E1  -8.178660235198693E1  -6.647751183935438   3.998165774578099E1  -6.674681077439390   7.707150830847364  -3.255543007550551E1  -9.037814321151225E1  
 1.581173594132029E11   -2.773974760417012E1  -1.026148338759279E2  -6.618404231616564   1.545590783425376E1  -6.651207657689858  -1.716795539926858E1  -3.024379851012654E1  -1.043521701153105E2  
 1.581295843520783E11   -3.090896028847689E1  -1.228007592526325E2  -6.618647056483728  -9.344086299276611  -6.640322493138183  -4.228683044187707E1  -2.915731593656975E1  -1.184379844387252E2  
 1.581418092909536E11   -4.078080512638043E1  -1.217375422943221E2  -6.711657238682022  -3.380369229503797E1  -6.735890384539427  -6.690656008343659E1  -2.850161509210590E1  -1.364270738564321E2  
 1.581540342298289E11   -3.593520316934989E1  -4.025282722200397E1  -6.770953120505165  -5.811659864314604E1  -6.790429872310183  -9.068289949783397E1  -3.023856622304589E1  -1.664920619456843E2  
 1.581662591687042E11   -3.003768996091812E1  -5.337744670528862E1  -6.724473514049691  -8.225042086326253E1  -6.734147152724656  -1.150878803225189E2  -3.612414733189809E1   1.556174267365117E2  
 1.581784841075795E11   -2.765081649784125E1  -7.128768471390008E1  -6.670502602423864  -1.072491500664889E2  -6.708838570282494  -1.392593987524410E2  -4.606941097086890E1  -1.791443542188395E1  
 1.581907090464548E11   -2.690718336335208E1  -8.827793535583405E1  -6.638305717879736  -1.316086339304715E2  -6.685124747110157  -1.641372858293671E2  -3.344229719851914E1  -6.009976012699787E1  
 1.582029339853301E11   -2.696798952916205E1  -1.077730071661347E2  -6.625771028470592  -1.560644317028257E2  -6.683183629962715   1.710073380963806E2  -2.990528730199336E1  -8.589331610885046E1  
 1.582151589242054E11   -2.820087738374226E1  -1.263783163321694E2  -6.653635824352698   1.793578243867403E2  -6.670442483703396   1.462816237654073E2  -2.804004904148255E1  -1.102666758887205E2  
 1.582273838630807E11   -3.121551735460729E1  -1.393068348537860E2  -6.678746561010000   1.542418791480959E2  -6.718681035782774   1.218171789850378E2  -2.681590320017835E1  -1.345535769241387E2  
 1.582396088019560E11   -3.515882923925548E1  -1.239461818338011E2  -6.744090499403417   1.306630631158045E2  -6.753113216439989   9.768928200750220E1  -2.661749310681487E1  -1.666579742714726E2  
 1.582518337408313E11   -3.290722542880198E1  -1.086698587225241E2  -6.664212278861541   1.064567379544454E2  -6.697388787486016   7.376085794422926E1  -2.799527734719597E1   1.538548472283551E2  
 1.582640586797066E11   -3.072696533182684E1  -1.143293050854353E2  -6.611525524784804   8.176023655732250E1  -6.620462146780892   4.920642841765373E1  -3.021786974585395E1   1.105304778398982E2  
 1.582762836185819E11   -2.932999525561978E1  -1.270011307949716E2  -6.550573002382077   5.679798662942255E1  -6.586204824168790   2.412359315373687E1  -3.232510395031613E1   6.099883049646183E1  
 1.582885085574572E11   -2.887512733129237E1  -1.464072936233274E2  -6.542469541132068   3.189110016304329E1  -6.561027734862782  -6.432205256681823E-1  -3.240078094716252E1   1.480496694548699E1  
 1.583007334963325E11   -2.890618930058313E1  -1.731328732367460E2  -6.559479397521948   7.078953640108897  -6.576166400106134  -2.524720795516701E1  -3.238046496327931E1  -2.482912862364935E1  
 1.583129584352078E11   -3.039735404554044E1   1.485048926258622E2  -6.620161914763765  -1.756633532842891E1  -6.645101689634727  -5.036854672304945E1  -3.283761580489280E1  -5.730302842831176E1  
 1.583251833740831E11   -3.304376700002816E1   8.594136112595309E1  -6.692954906536129  -4.176101033336870E1  -6.714269974530472  -7.411559554743160E1  -3.677586973601208E1  -8.811956870127408E1  
 1.583374083129584E11   -3.313388061342273E1   1.448484015624240E1  -6.660342018776982  -6.596806288860311E1  -6.696582232794983  -9.837717838352789E1  -4.552608435027432E1  -3.528473010929030  
 1.583496332518337E11   -3.069118626008433E1  -3.686549851974949E1  -6.589323089456154  -9.042731880461265E1  -6.629110003746698  -1.226788777311582E2  -3.339213966342837E1   2.855563648831718E-2  
 1.583618581907091E11   -2.786658656573681E1  -7.050785475802287E1  -6.566006896474183  -1.151514061414760E2  -6.597774307171587  -1.476871606124316E2  -2.885352395806481E1  -2.516211157334081E1  
 1.583740831295844E11   -2.600950973195737E1  -9.987400657280615E1  -6.547403750597791  -1.397095795098268E2  -6.581342341906976  -1.726541881823468E2  -2.649813960202458E1  -5.007470265914803E1  
 1.583863080684597E11   -2.479655934608167E1  -1.303981536419844E2  -6.551464982980384  -1.643912037666455E2  -6.597706733734092   1.624283133689478E2  -2.566619936629272E1  -7.518967685169898E1  
 1.583985330073350E11   -2.460937651903119E1  -1.623333642175935E2  -6.610494494907923   1.704278120876907E2  -6.621951766640761   1.379287269037295E2  -2.542818537148522E1  -1.008542483599436E2  
 1.584107579462103E11   -2.616490898665884E1   1.636561558791961E2  -6.712440563983070   1.463888462515581E2  -6.729686383899760   1.133787441162991E2  -2.614761012655233E1  -1.323857767107661E2  
 1.584229828850856E11   -2.903132144235212E1   1.369336520000568E2  -6.684347936997235   1.222038332192898E2  -6.708530770251211   8.969185040414175E1  -2.877834559081802E1  -1.707443467564377E2  
 1.584352078239609E11   -3.308976635682640E1   1.137544723689223E2  -6.634921517887070   9.797132011360674E1  -6.630040302878753   6.525742840510361E1  -3.365581645320673E1   1.368850561238628E2  
 1.584474327628362E11   -4.079517177661083E1   9.453811343057734E1  -6.564487345478234   7.316467365531094E1  -6.595392610213318   4.093664022298801E1  -3.490198583516315E1   5.457929655629862E1  
 1.584596577017115E11   -4.687740697924095E1  -1.543036263201555E2  -6.570191676198141   4.848119609139975E1  -6.596616143290200   1.579146638261551E1  -3.198623584640799E1  -4.479846157022187  
 1.584718826405868E11   -3.592175758595359E1  -1.660604805300069E2  -6.565419950420933   2.351010084889846E1  -6.558561350737693  -8.846531598713007  -3.009710491279721E1  -4.024400978016162E1  
 1.584841075794621E11   -3.142293029484828E1   1.596651986145492E2  -6.569820097185358  -1.226635180373187  -6.589286324215967  -3.374564974464236E1  -3.000635479217573E1  -6.624666765872112E1  
 1.584963325183374E11   -2.959731359399552E1   1.189111035363438E2  -6.634623917164997  -2.564239555097557E1  -6.627499689063988  -5.846331885715581E1  -3.158736195748473E1  -8.922517238094434E1  
 1.585085574572127E11   -2.955844443086292E1   7.806889041260955E1  -6.646459430107439  -5.001802915051602E1  -6.658402123901313  -8.251047570899824E1  -3.678782606734833E1  -1.066303803984720E2  
 1.585207823960880E11   -2.981489405435310E1   3.876208045847115E1  -6.614246771830072  -7.444792546327908E1  -6.598622031770352  -1.066441787462172E2  -4.132857719969197E1  -9.544340752767548  
 1.585330073349633E11   -2.941382349925874E1   6.723384463565109E-1  -6.556123123090655  -9.891325673431724E1  -6.569953996844682  -1.313977758511590E2  -3.087693506394296E1  -1.261253372053291E1  
 1.585452322738386E11   -2.807460691412349E1  -3.923573299263969E1  -6.555195426317517  -1.241133619411838E2  -6.554919505075492  -1.560717650171335E2  -2.655098723205563E1  -3.840995673636531E1  
 1.585574572127139E11   -2.705952335367355E1  -7.843612644920195E1  -6.562027920266779  -1.488384472736119E2  -6.584237785945925   1.791654925416491E2  -2.435424983335881E1  -6.363355147757051E1  
 1.585696821515892E11   -2.605443810376942E1  -1.182001784764423E2  -6.595168889934159  -1.735317089590954E2  -6.596642436854309   1.545488761933865E2  -2.330973133229297E1  -8.936767874413468E1  
 1.585819070904645E11   -2.606858686718396E1  -1.551033682977605E2  -6.665814472863435   1.615613183903109E2  -6.693827588837777   1.299697447077378E2  -2.318146678012236E1  -1.158887041349223E2  
 1.585941320293398E11   -2.753298021257984E1   1.750017814853822E2  -6.723926158508587   1.376302601621094E2  -6.721815700950883   1.054682590774592E2  -2.361595268716465E1  -1.460262288344987E2  
 1.586063569682152E11   -2.810037370131089E1   1.565994106217967E2  -6.695334109372284   1.134791488854419E2  -6.713081733707252   8.189737808345664E1  -2.533661873470420E1  -1.798037766421396E2  
 1.586185819070905E11   -2.915571393092217E1   1.395489062540937E2  -6.641928766048022   8.914963356888485E1  -6.643803367962440   5.698468564037682E1  -2.779674147786956E1   1.449425253782653E2  
 1.586308068459658E11   -3.002340275436711E1   1.288731906022673E2  -6.584153199636795   6.422598191435128E1  -6.602319359767768   3.245027397495119E1  -3.133600009104313E1   9.795329914839830E1  
 1.586430317848411E11   -3.014362720617060E1   1.257369021581005E2  -6.576868107260972   3.950154460598612E1  -6.592322358137298   7.335452611524106  -3.361578896849232E1   4.334886499934974E1  
 1.586552567237164E11   -2.888167007368161E1   1.242688989619465E2  -6.592876643058070   1.447796660943491E1  -6.605772694936789  -1.719852277422647E1  -3.464550647976179E1  -9.214070239930630  
 1.586674816625917E11   -2.606204799282874E1   1.096845451526901E2  -6.655243432972837  -1.039696227923426E1  -6.664043903234551  -4.192136432756257E1  -3.551364666269275E1  -5.343943581005263E1  
 1.586797066014670E11   -2.452526720202630E1   8.496274905105707E1  -6.727214917806351  -3.459903854610680E1  -6.750432327996099  -6.639085279449807E1  -4.019605194564022E1  -8.975586248329243E1  
 1.586919315403423E11   -2.395794292802479E1   6.297434221928319E1  -6.697419152868693  -5.881212769803395E1  -6.710699616094947  -9.015043373945333E1  -4.896271388790547E1   5.926221163986276E1  
 1.587041564792176E11   -2.405500923456171E1   3.926094438623906E1  -6.634073325799959  -8.312972254655475E1  -6.671780967055956  -1.146156810527680E2  -3.494031597707823E1   2.347926968086770E1  
 1.587163814180929E11   -2.447302327785428E1   1.560234956199829E1  -6.588868089925493  -1.075350589173372E2  -6.605327980649345  -1.392098330297459E2  -2.998346294427108E1  -9.534327659909977  
 1.587286063569682E11   -2.578031887302711E1  -1.030910885845323E1  -6.572943355329953  -1.319986360620865E2  -6.590476408668099  -1.643389438694943E2  -2.740109502473116E1  -4.227907982512198E1  
 1.587408312958435E11   -2.836437449871673E1  -3.526372997033992E1  -6.517426757736568  -1.570799200319431E2  -6.569749482777304   1.714313303239444E2  -2.643290049128360E1  -7.649762641751906E1  
 1.587530562347188E11   -3.417537571809825E1  -5.786251377798904E1  -6.560400935475740   1.781183854273376E2  -6.592606076456075   1.460717725981164E2  -2.659623749832640E1  -1.107619678322994E2  
 1.587652811735941E11   -4.305348992285138E1  -1.512168756987680E1  -6.588401445224557   1.539309203440447E2  -6.616513583106538   1.217823957938820E2  -2.738596591288290E1  -1.544748810975582E2  
 1.587775061124694E11   -3.680605030004823E1   1.728902156705527E1  -6.589047098620860   1.291257144545770E2  -6.626641924933644   9.741153303219413E1  -2.771167427231415E1   1.547718974193586E2  
 1.587897310513447E11   -3.251263406168572E1   1.180410156121688E1  -6.568345314489753   1.045664099296579E2  -6.590956771301352   7.289049394391640E1  -2.705850960164666E1   9.877721966590421E1  
 1.588019559902200E11   -3.021794673778249E1  -5.991471154209060  -6.540963779911762   7.963386341167106E1  -6.567627372677729   4.787446674194710E1  -2.521483326345905E1   5.152378826987133E1  
 1.588141809290953E11   -2.929478917513938E1  -3.089402133681369E1  -6.550387708863190   5.485691562142026E1  -6.577335686196085   2.308643240612474E1  -2.420989275520423E1   1.086402411680803E1  
 1.588264058679706E11   -2.985826321152679E1  -5.770672925704893E1  -6.592512711017728   2.985838718985766E1  -6.624247339528310  -2.030746023388553  -2.389465053911024E1  -2.468787092534384E1  
 1.588386308068460E11   -3.221887012946512E1  -8.625077146030108E1  -6.702579509616608   5.138925656242190  -6.700342224976927  -2.681683674177561E1  -2.464647107898631E1  -5.770176202669455E1  
 1.588508557457213E11   -3.728743330159993E1  -1.062851658140061E2  -6.802387039968187  -1.906851637061829E1  -6.824275969896545  -5.122818109216924E1  -2.673165992328298E1  -9.647106433847708E1  
 1.588630806845966E11   -4.359139073523191E1  -1.034666529651342E2  -6.845952839092325  -4.278829184750686E1  -6.855477480467330  -7.495669690890874E1  -3.081328876538468E1  -1.535812973822849E2  
 1.588753056234719E11   -4.706322862637024E1  -4.464855599022565E1  -6.821295800436928  -6.702101774312746E1  -6.836002069117493  -9.928404308292778E1  -3.082364047089545E1   1.178060753295921E2  
 1.588875305623472E11   -3.966767257113973E1  -3.611207686744268E1  -6.775050871258236  -9.142911602791210E1  -6.778971027926826  -1.236625274358421E2  -2.600464757165783E1   5.954673939738131E1  
 1.588997555012225E11   -3.489948585120424E1  -5.893958727412548E1  -6.736515481914668  -1.161126462081085E2  -6.741824228752533  -1.483331714780535E2  -2.295054506613177E1   2.140026792168056E1  
 1.589119804400978E11   -3.197006630748835E1  -9.700687048564910E1  -6.743050235012161  -1.408372919382464E2  -6.756747896809758  -1.729164440944373E2  -2.140117320574282E1  -1.103705223311059E1  
 1.589242053789731E11   -3.005733253756604E1  -1.412505932517547E2  -6.784103484378365  -1.656655694320268E2  -6.794687662296576   1.620503031903707E2  -2.116742379282116E1  -4.067548476613902E1  
 1.589364303178484E11   -2.838742250134157E1   1.752219715327546E2  -6.837594231902050   1.696765474066381E2  -6.821746674756866   1.377727949116463E2  -2.227749875136049E1  -6.926300308889221E1  
 1.589486552567237E11   -2.734326705468155E1   1.385829124720839E2  -6.873562110968873   1.458493486470070E2  -6.867162813924645   1.138932849016403E2  -2.532592873472143E1  -9.539946434569555E1  
 1.589608801955990E11   -2.618967194676288E1   1.044377096144545E2  -6.844282247742245   1.215523561795026E2  -6.838542548918244   8.933584395160300E1  -3.265326297328300E1  -1.172778491189202E2  
 1.589731051344743E11   -2.506279966125788E1   7.227332703762362E1  -6.819604371176058   9.712896703672853E1  -6.808624085132592   6.462518657210555E1  -3.836243466954650E1   1.995896618801539E1  
 1.589853300733496E11   -2.475459716639783E1   4.087096218246060E1  -6.794185384311840   7.230893610350728E1  -6.800853258684110   3.982963475058166E1  -2.690626665249068E1  -3.787215332397878  
 1.589975550122250E11   -2.526295491405497E1   1.063911645994375E1  -6.827608693391445   4.777717813924072E1  -6.822109964876237   1.509983388909204E1  -2.285841048160562E1  -3.072408525758230E1  
 1.590097799511003E11   -2.699226480748326E1  -1.839471029083165E1  -6.907575886042314   2.297475941859390E1  -6.900539535244561  -9.607795194756093  -2.111876850726278E1  -5.888148439657543E1  
 1.590220048899756E11   -3.030963510913445E1  -4.130299775979319E1  -6.970215933434218  -1.034898664702365  -6.982064851117589  -3.322292948317782E1  -2.089453482421342E1  -8.895960752123617E1  
 1.590342298288509E11   -3.466723624203649E1  -6.222125466177373E1  -6.956348622331638  -2.494091129223199E1  -6.973497003104786  -5.710856476324305E1  -2.175866165562819E1  -1.211143346502075E2  
 1.590464547677262E11   -4.456500645337648E1  -8.644528839184403E1  -6.913100888990408  -4.899861132350097E1  -6.902716994436700  -8.151252138167676E1  -2.373433853219041E1  -1.594266683564975E2  
 1.590586797066015E11   -4.166870912683431E1   6.897803086674833E1  -6.810973693995404  -7.309641674679631E1  -6.798591358402722  -1.060426084269487E2  -2.606948434736325E1   1.494585641236896E2  
 1.590709046454768E11   -3.362813156988970E1   4.447230988217478E1  -6.751699345610074  -9.807379104223809E1  -6.765400605260584  -1.309190588845933E2  -2.632723530654499E1   8.566300109741769E1  
 1.590831295843521E11   -3.175850142569777E1   1.787151366791048E1  -6.702648128116205  -1.231461755729936E2  -6.709387465695516  -1.558983934468221E2  -2.480604743788994E1   3.400695321131804E1  
 1.590953545232274E11   -3.262273191540848E1  -5.596988165467992  -6.747397418191961  -1.483714031481462E2  -6.754062450632193   1.793455325515369E2  -2.378480039596656E1  -6.240607886972138  
 1.591075794621027E11   -3.545461997016724E1  -1.255979084179307  -6.806707095412851  -1.726919651161250E2  -6.797306494668712   1.544190725133270E2  -2.462453041377990E1  -3.774899329566324E1  
 1.591198044009780E11   -3.406384406153912E1   1.669362677130300E1  -6.837502582568100   1.626947553498722E2  -6.851436835755251   1.301030048397752E2  -2.790326550104092E1  -6.227475772383387E1  
 1.591320293398533E11   -3.108894065047641E1   1.579329552294943E1  -6.839034406398890   1.384056217586649E2  -6.863283230267652   1.057875147060062E2  -3.662864397150138E1  -5.463458976931959E1  
 1.591442542787286E11   -2.818021403293390E1   7.653006696651511  -6.817521306098804   1.136415101108672E2  -6.847697903475061   8.090897970120587E1  -3.020220318804325E1   2.427457128958895E1  
 1.591564792176039E11   -2.566520530957346E1  -9.197233852673769  -6.830892484675638   8.938960315080425E1  -6.843351292917332   5.599320600195000E1  -2.325431335738557E1   1.119752172871197E1  
 1.591687041564792E11   -2.398077594685994E1  -3.537293177306203E1  -6.867922593866140   6.436690172633777E1  -6.916496166178715   3.128713467929718E1  -1.962835870642338E1  -1.138110556507094E1  
 1.591809290953545E11   -2.319066888696356E1  -6.522974254890747E1  -6.963869369065971   3.982929566183967E1  -6.982886611752107   6.866902542975314  -1.782252139244074E1  -3.584556742308472E1  
 1.591931540342298E11   -2.356010913946843E1  -9.909018172216280E1  -7.069085627309044   1.576080288629554E1  -7.079320262694330  -1.664575699982858E1  -1.718618290877920E1  -5.973030135619130E1  
 1.592053789731051E11   -2.454621815683607E1  -1.327133796973805E2  -7.059435264897576  -7.915603247960036  -7.090575348379070  -4.034888382316217E1  -1.774133780848820E1  -8.269455044307277E1  
 1.592176039119804E11   -2.503232615974495E1  -1.667411749377674E2  -6.974485389544026  -3.170600806106897E1  -6.987757059730916  -6.446312727594106E1  -1.907794513861478E1  -1.037470469657445E2  
 1.592298288508557E11   -2.486937397474987E1   1.531573513685472E2  -6.868245683139990  -5.611059947465230E1  -6.881175397117126  -8.875453551864230E1  -2.161602169772851E1  -1.230650238686892E2  
 1.592420537897311E11   -2.436356216226077E1   1.138193349313050E2  -6.792547730218275  -8.074183009826699E1  -6.785897689482082  -1.134794414758493E2  -2.636951086942093E1  -1.346069211161226E2  
 1.592542787286064E11   -2.394892098323131E1   7.487304299840507E1  -6.725603183981463  -1.059976714940824E2  -6.734434418996628  -1.385320254839502E2  -3.183578998829049E1  -1.040044143245702E2  
 1.592665036674817E11   -2.416729636383172E1   4.280311611878134E1  -6.739329032659539  -1.309905810447116E2  -6.767006226957232  -1.637806655791209E2  -2.749582272269745E1  -7.466874798897807E1  
 1.592787286063570E11   -2.548300746797679E1   1.735669487161755E1  -6.802379239302167  -1.559653067364332E2  -6.839310125998760   1.714004245754816E2  -2.435388238530469E1  -8.713174123745618E1  
 1.592909535452323E11   -2.674996896053644E1   1.074610828538251  -6.833905134499734   1.799564981003155E2  -6.849572414969237   1.471457697021914E2  -2.387571993902720E1  -1.088087090763643E2  
 1.593031784841076E11   -2.911772062499806E1  -1.246799000389061E1  -6.798672194069716   1.558042726668571E2  -6.819696461809312   1.227252202160397E2  -2.551335926458737E1  -1.306997793423599E2  
 1.593154034229829E11   -3.168206625149002E1  -3.874211223286458  -6.778753550635474   1.309361018217075E2  -6.813323679170749   9.817090886172872E1  -3.036876986322002E1  -1.529948876227568E2  
 1.593276283618582E11   -2.940694443497758E1   1.827270098208118E1  -6.736544773875520   1.062092523827201E2  -6.773781508558244   7.351601086865202E1  -5.906607518123062E1  -5.617782981007556E1  
 1.593398533007335E11   -2.617715214779038E1   1.048579814489853E1  -6.743346241356144   8.148628668879454E1  -6.773051791151495   4.843245788685088E1  -2.943354680172100E1  -2.843898734397848E1  
 1.593520782396088E11   -2.399268672920874E1  -7.764299310125228  -6.808154612608296   5.641363140693888E1  -6.827751449876074   2.339400653613020E1  -2.380670020073094E1  -5.123784828101469E1  
 1.593643031784841E11   -2.348871133179314E1  -2.936464603873250E1  -6.902836626941856   3.163293134363345E1  -6.927054088590497  -1.042614968648976  -2.114588023491611E1  -7.761956513731252E1  
 1.593765281173594E11   -2.412955377017919E1  -4.783420023754668E1  -7.018057003064272   7.710847278488280  -7.071346734912516  -2.491058913349326E1  -2.030876528156097E1  -1.058478965491792E2  
 1.593887530562347E11   -2.507951226730575E1  -6.585110270593829E1  -6.993480127704117  -1.627635291149818E1  -7.043838335925624  -4.865913169272373E1  -2.107795733970517E1  -1.332269073841400E2  
 1.594009779951100E11   -2.778340737855169E1  -8.735290339778689E1  -6.952606397692702  -4.051148814301064E1  -6.974589730383902  -7.291159308319685E1  -2.311553447619894E1  -1.605183639077569E2  
 1.594132029339853E11   -3.475271376577675E1  -1.012597399825422E2  -6.894908938637192  -6.514499299981713E1  -6.923980244775527  -9.732044436504498E1  -2.699062031964382E1   1.686820794614119E2  
 1.594254278728606E11   -4.082990449197405E1  -1.109567949878238  -6.835057497909373  -8.942896650842975E1  -6.862264661742314  -1.221173089510020E2  -3.514025253940692E1   1.176902086222638E2  
 1.594376528117359E11   -2.980585198301449E1  -9.529969515742564E-1  -6.825944945598120  -1.143962187278301E2  -6.860591288703285  -1.473621098345545E2  -3.289567160556402E1  -1.830379949240261E1  
 1.594498777506112E11   -2.619229445346224E1  -2.141125589969014E1  -6.903861714618468  -1.393131986688161E2  -6.950338371108438  -1.718440565805100E2  -2.636879811325675E1  -6.678368494542811E1  
 1.594621026894865E11   -2.417713400832563E1  -3.927857480431830E1  -7.003161118442796  -1.631827332260336E2  -7.020263137832471   1.640448615639483E2  -2.383284947832624E1  -1.037068643273835E2  
 1.594743276283619E11   -2.275588042592487E1  -6.118714140022870E1  -6.935197527517129   1.726880125416600E2  -6.962984100744332   1.404823530120891E2  -2.386169828469604E1  -1.387228291467427E2  
 1.594865525672372E11   -2.276944321831983E1  -8.796015379366973E1  -6.869950869665566   1.480608042374124E2  -6.906229111064841   1.155540351810987E2  -2.504743327283724E1  -1.723930219887327E2  
 1.594987775061125E11   -2.404700627657651E1  -1.137226268497396E2  -6.833608876041204   1.231150035732375E2  -6.878503932409954   9.111728533470220E1  -2.727621739310526E1   1.464277729121267E2  
 1.595110024449878E11   -2.674201920534416E1  -1.381268810736276E2  -6.812339738536536   9.850241979821604E1  -6.859036318608225   6.659292749889555E1  -2.984684236489903E1   9.030827230585489E1  
 1.595232273838631E11   -3.121485915107741E1  -1.591315449248735E2  -6.845037400482185   7.361592122126984E1  -6.866357754355911   4.142312018819388E1  -2.994229280179725E1   1.875530508829922E1  
 1.595354523227384E11   -3.805604131489433E1  -1.712959950095796E2  -6.919518345038013   4.895571568520388E1  -6.925436625289383   1.666081849592665E1  -2.761651902005625E1  -3.751373387682657E1  
 1.595476772616137E11   -5.170635273650690E1  -1.620709178971968E2  -7.001278125856468   2.499225072845989E1  -7.013961112487562  -7.585383981808252  -2.694885047495646E1  -8.384767129097126E1  
 1.595599022004890E11   -4.137001412940432E1  -3.457307226608901E1  -6.944007113051977   9.454289712801561E-1  -6.973847814821053  -3.102574525993400E1  -2.813861423620375E1  -1.245188011454143E2  
 1.595721271393643E11   -3.588340083707245E1  -6.797129637371722E1  -6.860344119553927  -2.338194999761374E1  -6.872314111440861  -5.585776794658099E1  -2.978748357209088E1  -1.633908523995052E2  
 1.595843520782396E11   -3.570424287693758E1  -9.935747654462007E1  -6.811606791900968  -4.816078863405146E1  -6.826085457205953  -8.037540177908875E1  -3.156842217799520E1   1.454964724051512E2  
 1.595965770171149E11   -3.937585469342802E1  -1.275574796913028E2  -6.770669772002519  -7.334378142657074E1  -6.800530817901875  -1.052283348606586E2  -3.050751137248351E1   8.054284633447421E1  
 1.596088019559902E11   -5.407021412163217E1  -1.739337837236889E2  -6.778244353775555  -9.785071378403478E1  -6.818459933279587  -1.300789877237685E2  -2.750271758970995E1   2.884585165568364E1  
 1.596210268948655E11   -4.767801048115218E1   5.078101978267307  -6.838140829375709  -1.227814234892014E2  -6.865892389573894  -1.553464068242786E2  -2.536176854063267E1  -1.145525032782635E1  
 1.596332518337408E11   -4.097018710812010E1  -5.698226909540184  -6.927498994137760  -1.472066858477354E2  -6.973943892639570  -1.795309849988664E2  -2.486127290547349E1  -4.724695604790689E1  
 1.596454767726162E11   -3.727842491253747E1  -1.431345108933364E1  -6.906753318082995  -1.711990126329337E2  -6.957171265690385   1.564592030925098E2  -2.607032858121606E1  -7.528479817294121E1  
 1.596577017114915E11   -3.732654054844288E1  -3.672652975940724E1  -6.880342279316900   1.643025161568511E2  -6.901156672073255   1.315287617779395E2  -2.847568403423042E1  -9.624551990147400E1  
 1.596699266503668E11   -4.268271174528334E1  -3.027705334264403E1  -6.865856299684937   1.394371872026266E2  -6.906068160012053   1.070033154369908E2  -3.238685554599300E1  -1.095536547384709E2  
 1.596821515892421E11   -3.890370162675354E1   2.884415058170028E1  -6.891182621431102   1.146031356286409E2  -6.904872428046526   8.219533836221586E1  -4.019748816416443E1  -8.422802989855293E1  
 1.596943765281174E11   -3.153077064300140E1   1.913290952404986E1  -6.912771362267042   8.987041574896408E1  -6.941737719707616   5.747220028298055E1  -3.451691431354701E1  -3.356436000178194E1  
 1.597066014669927E11   -2.793404489699309E1  -2.937212293473311  -6.999501728763923   6.565522734338275E1  -7.044350425204419   3.260674007083225E1  -2.860196520833319E1  -4.647622097532678E1  
 1.597188264058680E11   -2.613192818367336E1  -2.562480793631166E1  -7.102935839126567   4.132907790500110E1  -7.126823498784027   8.518417805423320  -2.586777016024346E1  -7.588825899801097E1  
 1.597310513447433E11   -2.461131307022620E1  -4.585120333246491E1  -7.138727982384322   1.788937418953101E1  -7.187895511666997  -1.493299331312931E1  -2.619305640041192E1  -1.123253740111329E2  
 1.597432762836186E11   -2.349516845182093E1  -7.141823117193994E1  -7.028328453764973  -6.161443959492142  -7.094463446871596  -3.888330887587615E1  -2.865841214462047E1  -1.503782839617953E2  
 1.597555012224939E11   -2.335684161638395E1  -1.010644371109725E2  -6.984068964348078  -3.108784699064514E1  -7.027805465034659  -6.368748289073673E1  -3.182935093923830E1   1.613207693949843E2  
 1.597677261613692E11   -2.393842050859147E1  -1.322505829308498E2  -6.983471329991480  -5.563345170020115E1  -7.000122207650430  -8.850565845009450E1  -3.224898066076052E1   9.571329263475529E1  
 1.597799511002445E11   -2.489524497727057E1  -1.645978130949840E2  -7.010238425807039  -7.989309824484658E1  -7.035968427093868  -1.134071312404278E2  -2.876662167515649E1   4.169127360640278E1  
 1.597921760391198E11   -2.581298801184281E1   1.613247375164371E2  -7.047165448410781  -1.045216951733663E2  -7.065838240729173  -1.378418259185456E2  -2.592537140397239E1   5.031981269733290  
 1.598044009779951E11   -2.598625991272853E1   1.247201071740369E2  -7.070921382040171  -1.284027982015154E2  -7.117298769272971  -1.618618120140751E2  -2.490500349105114E1  -2.688716361142396E1  
 1.598166259168704E11   -2.616388388080415E1   8.821392830470573E1  -7.015354928587595  -1.523464295648087E2  -7.050505040384448   1.743760747884555E2  -2.583165842198800E1  -5.008295807130191E1  
 1.598288508557457E11   -2.706703118497466E1   5.951935491645011E1  -6.874788846645672  -1.766010641532506E2  -6.919723014794028   1.499349248218508E2  -2.760543097663532E1  -5.792042901204552E1  
 1.598410757946210E11   -2.809498586044097E1   4.596808109568226E1  -6.807182972250984   1.581906674224506E2  -6.856342385656189   1.248722212923915E2  -2.805831565615996E1  -5.785309341592527E1  
 1.598533007334963E11   -2.740307361969866E1   4.333824127198675E1  -6.794753256968365   1.331214247695603E2  -6.845396948437955   9.968389954703822E1  -2.797258837635553E1  -5.689926831328612E1  
 1.598655256723716E11   -2.555513106041989E1   3.763491963203561E1  -6.835702054713980   1.081007066669565E2  -6.838769962064981   7.490703525456553E1  -2.706233154523964E1  -5.765743334785375E1  
 1.598777506112470E11   -2.345456102604563E1   2.609886080743149E1  -6.873704821998082   8.330293846806293E1  -6.888858057288263   4.995694222437365E1  -2.587410889250426E1  -5.947418750465558E1  
 1.598899755501223E11   -2.194300711221325E1   1.164557977867293E1  -6.964590771310326   5.868082511965447E1  -6.987565085744164   2.540857804991511E1  -2.381923945053006E1  -7.194177794045591E1  
 1.599022004889976E11   -2.090377936843430E1  -1.369878539426780  -7.065436989125038   3.495638019659257E1  -7.068307949484525   1.082197701288250  -2.272406958357768E1  -9.725901347875195E1  
 1.599144254278729E11   -2.000596997496150E1  -1.682998449148342E1  -7.007198171778263   1.137344024209137E1  -7.021138346287388  -2.231043561945740E1  -2.418508692569925E1  -1.267808827061566E2  
 1.599266503667482E11   -1.980904820884474E1  -3.404465908411869E1  -6.865258157567316  -1.309562073212005E1  -6.902860616123142  -4.629544891110069E1  -2.800698497938012E1  -1.547758632812854E2  
 1.599388753056235E11   -2.050058771232272E1  -5.007008720854255E1  -6.780234300610492  -3.816816048121675E1  -6.796124808949551  -7.172807068278029E1  -3.508682304294335E1   1.673505049732806E2  
 1.599511002444988E11   -2.193195105437315E1  -5.952065788370728E1  -6.711566302819110  -6.348148163801610E1  -6.754132921135923  -9.689500479101304E1  -3.966563323987710E1   2.602136188478412E1  
 1.599633251833741E11   -2.371011192853681E1  -6.112994404523737E1  -6.738172954439471  -8.885232715241691E1  -6.750061155617044  -1.219664267852703E2  -3.031646009764627E1  -2.357735853070593E1  
 1.599755501222494E11   -2.418285370392146E1  -5.546403237927816E1  -6.859997462990746  -1.137190336988244E2  -6.865993297470278  -1.472147155747479E2  -2.589159962386235E1  -5.395342766149633E1  
 1.599877750611247E11   -2.328802045739229E1  -4.858745513930278E1  -7.004290703685190  -1.383371522672063E2  -7.038754714765509  -1.717965037197905E2  -2.370326353591678E1  -8.752221029572134E1  
 1.600000000000000E11   -2.113198487640742E1  -4.764895681597307E1  -7.084325579403044  -1.622395696073374E2  -7.105315988286497   1.647891848741074E2  -2.381730610443471E1  -1.266594598282654E2  
 1.600122249388753E11   -1.922260511722550E1  -5.886375282851314E1  -7.034400563906821   1.739518679494293E2  -7.088501285663621   1.404073852646705E2  -2.549495232666180E1  -1.660737788737978E2  
 1.600244498777506E11   -1.819014551066641E1  -7.405894716041141E1  -7.001558134928581   1.492851274790758E2  -7.056207701334087   1.160735609664084E2  -2.775328739689741E1   1.462458525112364E2  
 1.600366748166259E11   -1.801780690347790E1  -8.984481966672428E1  -7.014888279869076   1.247269134249457E2  -7.047608296958156   9.163569611903930E1  -2.817946058953840E1   8.813206778691189E1  
 1.600488997555012E11   -1.827628399509531E1  -1.050930843367418E2  -6.996289969397665   9.989116369883291E1  -7.081057196882163   6.721611206185156E1  -2.633950462075724E1   3.804138046188833E1  
 1.600611246943765E11   -1.910233870185711E1  -1.196128847737870E2  -7.075306279635144   7.554004956576287E1  -7.148419998128204   4.261558894886333E1  -2.460709737291398E1  -1.764855863612985  
 1.600733496332518E11   -2.064654179315289E1  -1.339572600890594E2  -7.146965635729468   5.155803364735550E1  -7.215289701502048   1.831287693277350E1  -2.392069961465820E1  -3.798210171175840E1  
 1.600855745721271E11   -2.352426444190975E1  -1.428580216150112E2  -7.113019906181449   2.784077887251769E1  -7.158082093356416  -4.384070736802276  -2.524521259540180E1  -6.998267433693623E1  
 1.600977995110024E11   -2.629884131346426E1  -1.336217088037718E2  -6.951426346298879   3.260220848468216  -6.976844576408541  -2.844796104561732E1  -2.837810422372160E1  -9.270754267181341E1  
 1.601100244498778E11   -2.608751366989550E1  -1.198285140154738E2  -6.834107735569855  -2.156352412118736E1  -6.863631861036510  -5.399157131931032E1  -3.342734887432201E1  -1.087887466932487E2  
 1.601222493887531E11   -2.475299890816073E1  -1.171663165786910E2  -6.777905808340983  -4.658804831671693E1  -6.844679543242848  -7.887236701937955E1  -4.594059921430750E1  -6.527975995747161E1  
 1.601344743276284E11   -2.371705251652908E1  -1.237071010275135E2  -6.795676447967084  -7.189275136533442E1  -6.873783949729200  -1.042495474051267E2  -3.360309128480071E1  -1.756196370132472  
 1.601466992665037E11   -2.316639279512606E1  -1.348201138230935E2  -6.898335042652586  -9.649423678725508E1  -6.933241091872409  -1.289632800861101E2  -2.791842210174267E1  -1.865611597855757E1  
 1.601589242053790E11   -2.354506602613834E1  -1.486855586835536E2  -7.031502952922618  -1.207819726130531E2  -7.087417410448164  -1.537958834481238E2  -2.546963097982397E1  -4.687964216576226E1  
 1.601711491442543E11   -2.572004291175201E1  -1.596832465440248E2  -7.045722026066826  -1.445284910981480E2  -7.096848677471885  -1.772088225619501E2  -2.615322120250384E1  -7.547722354333999E1  
 1.601833740831296E11   -2.826810448339799E1  -1.560786408830383E2  -6.950881005606689  -1.684568195977766E2  -6.987201674558672   1.584930352517334E2  -2.942401867004005E1  -9.425975204563382E1  
 1.601955990220049E11   -2.883797942253987E1  -1.450589557583944E2  -6.853457239202817   1.668009866208302E2  -6.885070865999461   1.341116088548061E2  -3.548942933029600E1  -9.917298522942626E1  
 1.602078239608802E11   -2.777533642848543E1  -1.418020773303208E2  -6.805183096706260   1.416329991597449E2  -6.809356251072903   1.090970681318363E2  -3.982004384063848E1  -4.264632314031873E1  
 1.602200488997555E11   -2.660374677312021E1  -1.468882290090139E2  -6.799238732169480   1.164370246791031E2  -6.818877679575226   8.428395392821328E1  -3.328182743699197E1  -1.161314269169034E1  
 1.602322738386308E11   -2.605644103540984E1  -1.581773145848808E2  -6.834837995733823   9.156356118509670E1  -6.907842093479832   5.910671979061726E1  -2.871808068170157E1  -1.659132700272813E1  
 1.602444987775061E11   -2.600262315468817E1  -1.765385377864685E2  -6.972304274120426   6.708136146333048E1  -7.019103770774531   3.436472060757897E1  -2.567090692706768E1  -3.436835252604951E1  
 1.602567237163814E11   -2.823791017422984E1   1.597611592987029E2  -7.067975249638470   4.336166283842100E1  -7.099265530044141   1.074990168511198E1  -2.536819511255938E1  -6.133230381727086E1  
 1.602689486552567E11   -3.342282676848359E1   1.384259749656632E2  -6.990293259042339   1.914902407557700E1  -7.000229750721206  -1.296048035576338E1  -2.889146906520213E1  -8.204700446868743E1  
 1.602811735941320E11   -4.323981870110385E1   1.222103823399622E2  -6.906220432598528  -4.417846534578732  -6.884848493653379  -3.865078135272740E1  -3.660777018640579E1  -6.325640669160610E1  
 1.602933985330073E11   -4.557170822957562E1  -8.379916001116584E1  -6.852906488084019  -2.943551675948184E1  -6.892558351049225  -6.419596825784437E1  -3.060540285388489E1  -1.128355450851698  
 1.603056234718826E11   -3.640196804459244E1  -7.713006655598879E1  -6.866427639814539  -5.493386706785130E1  -6.885258487246278  -8.874045050757744E1  -2.480486199797766E1  -8.576062220627907  
 1.603178484107579E11   -3.256540600109438E1  -9.051215042051037E1  -6.930675521970115  -7.989491818599703E1  -6.960682074110691  -1.139683680252922E2  -2.123131633281253E1  -2.556707722332455E1  
 1.603300733496332E11   -3.118826234109252E1  -1.084819513856564E2  -7.101000691814211  -1.046664392823657E2  -7.126820465562813  -1.386590867769648E2  -1.908713775113418E1  -4.640726901750418E1  
 1.603422982885085E11   -3.395609743341436E1  -1.074451236990184E2  -7.260195862744138  -1.286710971207572E2  -7.241298692264324  -1.625052957602982E2  -1.786241139568498E1  -7.085574398119371E1  
 1.603545232273839E11   -3.089719805538829E1  -7.662151733016373E1  -7.212466814733491  -1.515078976352122E2  -7.246867308707669   1.743620063233930E2  -1.806307940005634E1  -9.771464252067332E1  
 1.603667481662592E11   -2.613191050702967E1  -8.427355743274647E1  -7.111508377947533  -1.754560968305371E2  -7.114460985021364   1.501398622827821E2  -1.934920466659569E1  -1.232789750097482E2  
 1.603789731051345E11   -2.350516797138588E1  -1.011916747370792E2  -7.072305134123925   1.597304534568300E2  -7.072390965839084   1.252417336441990E2  -2.185909741654836E1  -1.489396768550325E2  
 1.603911980440098E11   -2.209826859454288E1  -1.184503348608831E2  -7.013202078090724   1.354506750570711E2  -7.044996561735474   1.005370992436860E2  -2.583150937268826E1  -1.783485616268151E2  
 1.604034229828851E11   -2.131190344859385E1  -1.361991947818154E2  -7.049042032413830   1.101179682326705E2  -7.081139912276574   7.588968321335392E1  -3.369903427799133E1   1.327622348418014E2  
 1.604156479217604E11   -2.094697007341309E1  -1.542813263814182E2  -7.169760286236260   8.505879335729843E1  -7.157290807306653   5.143814144449570E1  -3.397044633777578E1   1.043495079868615E1  
 1.604278728606357E11   -2.171327913921818E1  -1.759794790459364E2  -7.225160902541231   6.137621329709866E1  -7.243494436729955   2.767687570496429E1  -2.798903086767318E1  -4.529744842141309E1  
 1.604400977995110E11   -2.397396649094023E1   1.651722546943470E2  -7.128528599502860   3.837105514578486E1  -7.151254840380660   4.211968698301663  -2.717233276249082E1  -7.573984017525726E1  
 1.604523227383863E11   -2.729695519615002E1   1.550094454594855E2  -6.985267333939944   1.386549312694602E1  -6.966058020774820  -2.034685310555758E1  -2.899479995838976E1  -9.626682963223979E1  
 1.604645476772616E11   -3.196555886428531E1   1.595190310530723E2  -6.860501875234752  -1.061356013409028E1  -6.864082439832387  -4.563679403343256E1  -3.369511027083748E1  -1.029220050404270E2  
 1.604767726161369E11   -3.379513335236413E1  -1.625482449447486E2  -6.804992751839577  -3.603956104563461E1  -6.824495662674342  -7.093002405985919E1  -3.724206699577024E1  -5.162035216002231E1  
 1.604889975550122E11   -2.963130449721471E1  -1.461528938487586E2  -6.844794621631583  -6.132151114387141E1  -6.826465205956149  -9.580806519836153E1  -3.044037095086006E1  -3.155427117589710E1  
 1.605012224938875E11   -2.650740236569995E1  -1.563278381475819E2  -6.969260374775989  -8.620966588714083E1  -6.968060841797814  -1.214878832251176E2  -2.566527193828635E1  -4.166652805081595E1  
 1.605134474327628E11   -2.559407347093861E1  -1.788207966033461E2  -7.105655984340267  -1.102816666867734E2  -7.115817367230038  -1.448036804214990E2  -2.292748341735546E1  -6.525255594164752E1  
 1.605256723716381E11   -2.774878546398876E1   1.614216879988496E2  -7.106101252817219  -1.334164827646123E2  -7.128632928813044  -1.691027198505393E2  -2.220471985644030E1  -9.327476258905804E1  
 1.605378973105134E11   -3.272424274184648E1   1.623970172236317E2  -7.000197547437909  -1.577175152014015E2  -7.004410872202906   1.671484824107403E2  -2.314314960587403E1  -1.210562965529437E2  
 1.605501222493887E11   -3.487659425516379E1  -1.494624723132165E2  -6.865063037303600   1.776205808834536E2  -6.904025349880973   1.423389624769992E2  -2.526625095582283E1  -1.506557725048158E2  
 1.605623471882640E11   -2.904097889687728E1  -1.306790946777687E2  -6.818825226238049   1.525400263161372E2  -6.830092753337933   1.174231357742996E2  -2.846071526879431E1   1.724453066166981E2  
 1.605745721271393E11   -2.463931747598334E1  -1.366964231677050E2  -6.789705925165764   1.276267183551930E2  -6.824635890413331   9.211032845225647E1  -3.141746948039145E1   1.147105736123801E2  
 1.605867970660147E11   -2.157488588068847E1  -1.527439453883418E2  -6.844052876127554   1.023107174956597E2  -6.865567949036261   6.679942734025208E1  -2.924032241243905E1   5.377183825221439E1  
 1.605990220048900E11   -1.971504025543636E1  -1.723727787667039E2  -7.029012336243315   7.779317929550764E1  -7.006303675460536   4.160046523536487E1  -2.596636977515264E1   9.761291063487935  
 1.606112469437653E11   -1.908485572825872E1   1.665324925751585E2  -7.099650914846575   5.377171597100575E1  -7.120840814589517   1.795715015195293E1  -2.455467032558650E1  -2.225749182900907E1  
 1.606234718826406E11   -1.910752221274539E1   1.481882590737548E2  -7.103423274023917   3.043369382233281E1  -7.107506258825760  -6.042565727488660  -2.506270774433472E1  -4.374352028141006E1  
 1.606356968215159E11   -1.947457353544031E1   1.308122858921048E2  -7.020699770048043   5.804177194237337  -7.058301784128490  -2.997615373113836E1  -2.605291109973170E1  -5.153309170223334E1  
 1.606479217603912E11   -2.039137142015773E1   1.137274989701232E2  -7.004334423710342  -1.941076618702051E1  -7.024652274910511  -5.427205486253534E1  -2.618230491933230E1  -4.989147071495716E1  
 1.606601466992665E11   -2.179812656788586E1   9.751411983564771E1  -7.005709680372366  -4.370398490763938E1  -6.975808306266082  -7.876117090138513E1  -2.523855197843674E1  -4.992906200932507E1  
 1.606723716381418E11   -2.421884321710959E1   8.452224302644611E1  -6.970141124521628  -6.835114137434921E1  -6.984334207902514  -1.041971820418864E2  -2.377726144669912E1  -5.577695037294118E1  
 1.606845965770171E11   -2.716696737014109E1   8.467986128147693E1  -7.026966303616434  -9.327355754600046E1  -7.036986933988763  -1.286527760551801E2  -2.259213015953841E1  -6.670043269563783E1  
 1.606968215158924E11   -2.724301073272170E1   9.506380650721476E1  -7.136553675925958  -1.177847440473898E2  -7.142765506954319  -1.529329416107690E2  -2.189850370417110E1  -8.304269672567159E1  
 1.607090464547677E11   -2.605678719614576E1   8.702099801637370E1  -7.144793953361026  -1.409324863096270E2  -7.152664891556605  -1.766315794354441E2  -2.232245597961250E1  -1.050815612567457E2  
 1.607212713936430E11   -2.574547188427891E1   7.078021356851691E1  -7.081587228441225  -1.654854388083693E2  -7.084233439591738   1.595020771049401E2  -2.477991242343348E1  -1.301945661479183E2  
 1.607334963325183E11   -2.590661615147221E1   4.995735052083157E1  -6.986457442001328   1.703444001845826E2  -7.029470562145339   1.346221089653242E2  -3.064536593233683E1  -1.580675505079894E2  
 1.607457212713937E11   -2.672558130966763E1   2.353027670834424E1  -6.918255615777944   1.455802716860116E2  -6.932731083451765   1.098627832269174E2  -4.373309412273704E1   6.374065212597194E1  
 1.607579462102690E11   -2.805111979804763E1  -1.166372687180308E1  -6.912875849590426   1.205139075073544E2  -6.921080978633263   8.495492413835420E1  -2.904544138983630E1  -3.576697632463093  
 1.607701711491443E11   -2.969213734732000E1  -6.110673671016393E1  -6.951505102171618   9.538501445925122E1  -6.945397863909730   6.007120024854443E1  -2.439928798729614E1  -2.849620440801819E1  
 1.607823960880196E11   -2.979963935031413E1  -1.073680648243452E2  -6.979112255068285   7.157819419457013E1  -7.004691230984869   3.586070131104892E1  -2.225914954116174E1  -5.168136518020992E1  
 1.607946210268949E11   -2.823114754704255E1  -1.461536859285063E2  -6.953571374877781   4.744763441996410E1  -6.956251506793960   1.155432351308647E1  -2.202898712256376E1  -7.478702737026431E1  
 1.608068459657702E11   -2.621373535988666E1  -1.785430022854942E2  -6.912328169288453   2.289195939092162E1  -6.918261508110562  -1.298661650777219E1  -2.371915139013904E1  -9.262006584346592E1  
 1.608190709046455E11   -2.489442304213389E1   1.526621738942815E2  -6.870772713714496  -2.136530065042362  -6.895058172088257  -3.821267129936641E1  -2.748853193895346E1  -9.791424489436325E1  
 1.608312958435208E11   -2.440456311978328E1   1.254039798054762E2  -6.864694206633481  -2.680493421016718E1  -6.864129397735505  -6.264141427218731E1  -3.028231209002289E1  -6.412268830159454E1  
 1.608435207823961E11   -2.497001427945650E1   9.886359862376227E1  -6.887584489510862  -5.172653952897468E1  -6.915406381893647  -8.775723182322214E1  -2.510389731261411E1  -4.354225353386638E1  
 1.608557457212714E11   -2.666416770469174E1   7.621308222765141E1  -6.973651511408177  -7.635539608986682E1  -6.977949870029283  -1.127774881853938E2  -2.118935482955876E1  -5.335475864729872E1  
 1.608679706601467E11   -2.889961669464840E1   6.645001945450737E1  -7.069192933709373  -1.010885584889114E2  -7.078228785694763  -1.366634937712391E2  -1.888224789871422E1  -7.051399410878906E1  
 1.608801955990220E11   -2.947242010920083E1   5.422442367259443E1  -7.156039932463219  -1.247440611393887E2  -7.165181517450237  -1.606014807180798E2  -1.773352207493545E1  -9.173925668829162E1  
 1.608924205378973E11   -3.077265313110464E1   3.461225395191670E1  -7.121545954893328  -1.490311824498762E2  -7.134139253820817   1.760802734130162E2  -1.766933450962046E1  -1.141457966847753E2  
 1.609046454767726E11   -3.324464169118316E1   1.210890455024360E1  -7.032477975682544  -1.732970501066324E2  -7.043040786859101   1.514134450179358E2  -1.859736360471150E1  -1.369213682423795E2  
 1.609168704156479E11   -3.597598466246619E1  -2.052014063062386E1  -6.966625504413637   1.621464711882397E2  -6.981364567534890   1.274921168428860E2  -2.075188928395130E1  -1.590824284024299E2  
 1.609290953545232E11   -3.794017259830944E1  -7.369599434103532E1  -6.902650040396754   1.379976868435702E2  -6.922848567999195   1.019946176547773E2  -2.455245592699873E1   1.797831536914147E2  
 1.609413202933985E11   -3.447488370692147E1  -1.380927644835694E2  -6.883953302723282   1.126736982012230E2  -6.894088310883119   7.712145275834432E1  -3.127886574238013E1   1.640992774318346E2  
 1.609535452322738E11   -2.992820579711353E1   1.758002199142687E2  -6.926767711627656   8.793375201268208E1  -6.937031858644836   5.299349573310544E1  -4.137340315663818E1  -1.299422610541222E2  
 1.609657701711491E11   -2.778691875089436E1   1.413458435348018E2  -6.938004405660320   6.371931108533755E1  -6.933301069410954   2.821985832776934E1  -3.285637859440129E1  -1.059055533428768E2  
 1.609779951100244E11   -2.635226901225043E1   1.163559424041167E2  -6.899363571464623   3.904471337952372E1  -6.921108078391761   3.692984321369920  -3.138393240665278E1  -1.321896158653528E2  
 1.609902200488998E11   -2.523226915172500E1   9.130860157696112E1  -6.898747591436713   1.433492472182445E1  -6.925564963182959  -2.110584677442654E1  -3.510985745117445E1  -1.740751649698210E2  
 1.610024449877751E11   -2.430999585743031E1   6.507030086294230E1  -6.904891113983113  -1.086359502512052E1  -6.899376019074867  -4.583544607723420E1  -3.548126403204817E1   7.478405383812260E1  
 1.610146699266504E11   -2.394862241078520E1   3.529406762636146E1  -6.899548059619046  -3.530977457037212E1  -6.936068148376325  -7.061691343354437E1  -2.723318003475882E1   1.919673911568897E1  
 1.610268948655257E11   -2.411010086055820E1   1.472149926516714  -6.997927205327022  -6.009088355038888E1  -7.003681700784582  -9.498202012317665E1  -2.242241586171609E1  -1.266783677128664E1  
 1.610391198044010E11   -2.466468582271541E1  -3.464652444035910E1  -7.041586629467739  -8.468847206098494E1  -7.075565130124271  -1.194842626706573E2  -1.966028497913404E1  -3.930548434067431E1  
 1.610513447432763E11   -2.571223342715799E1  -6.933715563896658E1  -7.104766423945183  -1.085586963406022E2  -7.123139802847230  -1.436924428268389E2  -1.834313831631243E1  -6.421654930209100E1  
 1.610635696821516E11   -2.582557017779040E1  -1.046434132066475E2  -7.042817445716162  -1.328609958903272E2  -7.048579316594553  -1.678992447682449E2  -1.807515226591764E1  -8.673735969995479E1  
 1.610757946210269E11   -2.559324298247160E1  -1.407617757331784E2  -6.967601763626760  -1.570778713697274E2  -6.998829458316938   1.679057681560116E2  -1.885693317194099E1  -1.073021152282809E2  
 1.610880195599022E11   -2.552505203048218E1  -1.759280354926666E2  -6.933482632435161   1.785280222087029E2  -6.943685062440307   1.427342963787551E2  -2.068439785812108E1  -1.232888722953743E2  
 1.611002444987775E11   -2.563324987823926E1   1.514305130561360E2  -6.908733404174103   1.530794789044926E2  -6.918233124959357   1.179175213642236E2  -2.343983840954413E1  -1.291698230138347E2  
 1.611124694376528E11   -2.655884274184086E1   1.221032654238119E2  -6.949707371032456   1.280555751469312E2  -6.939989135151892   9.347413291172251E1  -2.549149018327872E1  -1.163817897385860E2  
 1.611246943765281E11   -2.784807528449492E1   9.890381232216801E1  -7.028799734417750   1.035116847393935E2  -7.035933417138288   6.870314355911195E1  -2.416210494533329E1  -1.052745137502995E2  
 1.611369193154034E11   -2.863267477478853E1   7.744935835612822E1  -7.109933431922586   7.941744852710855E1  -7.134816868808501   4.465481887692938E1  -2.171849966627868E1  -1.118711312663324E2  
 1.611491442542787E11   -3.006989190191564E1   5.003534521833019E1  -7.105870456971263   5.511743680597739E1  -7.134680459446561   1.999488090422979E1  -2.071697292923961E1  -1.288814927461292E2  
 1.611613691931540E11   -3.242659491597200E1   2.717043921225155E1  -7.125793810403948   3.079166167320465E1  -7.128262955022618  -3.794556762842017  -2.081245222104651E1  -1.507979057898278E2  
 1.611735941320293E11   -3.415103399696876E1   5.694947773164590  -7.107721931434246   6.039456742609845  -7.116427530891826  -2.816157998344482E1  -2.264172499271673E1  -1.756732760215134E2  
 1.611858190709046E11   -3.490521975857555E1  -2.087393598849264E1  -7.104826325631606  -1.817626650937678E1  -7.110008871143720  -5.273811231107860E1  -2.671701294232125E1   1.525119076298585E2  
 1.611980440097799E11   -3.314360132174481E1  -5.618605908099654E1  -7.136447513563955  -4.259012553047282E1  -7.133645066616942  -7.763679758760375E1  -3.490282583393049E1   8.321314891342573E1  
 1.612102689486553E11   -3.068501800651124E1  -9.272875360912919E1  -7.168184859530235  -6.697538706460600E1  -7.200419089107219  -1.018265194468575E2  -2.950546566038699E1  -2.812231889431935E1  
 1.612224938875306E11   -2.886199023594337E1  -1.288461921479912E2  -7.202346412221190  -9.118988914570058E1  -7.214438631156254  -1.257408212756857E2  -2.394758696071246E1  -6.710264558739259E1  
 1.612347188264059E11   -2.755073203318367E1  -1.546681880919392E2  -7.156227705695351  -1.153675996460673E2  -7.167761014875508  -1.497339257266406E2  -2.184426016878840E1  -9.564309589319664E1  
 1.612469437652812E11   -2.639683134678171E1  -1.747500426408505E2  -7.092955227551925  -1.390946368452063E2  -7.112193555506050  -1.740982432041091E2  -2.137152077798734E1  -1.210566644188998E2  
 1.612591687041565E11   -2.516871274135919E1   1.657896293361808E2  -7.032681685797580  -1.637735104908260E2  -7.060654226855001   1.607392759836740E2  -2.245422112436371E1  -1.445026860429625E2  
 1.612713936430318E11   -2.457319138841043E1   1.457900226554986E2  -6.985007139867834   1.714732439798164E2  -7.003121310569913   1.361944412663857E2  -2.554253720485365E1  -1.639425315765929E2  
 1.612836185819071E11   -2.491747210922649E1   1.286221676689009E2  -6.984412754414665   1.469884123446340E2  -6.984646696243828   1.114475414898506E2  -3.213204506953361E1  -1.646683677784931E2  
 1.612958435207824E11   -2.601417580461393E1   1.166796038898293E2  -6.989828242103132   1.225128155593916E2  -7.033817549530530   8.700552592943643E1  -3.235779444646582E1  -9.977667218018493E1  
 1.613080684596577E11   -2.645179963548194E1   1.134011727172035E2  -6.960030209933994   9.777628200019584E1  -7.015843541845451   6.236728402579284E1  -2.592358035980178E1  -9.689160969370448E1  
 1.613202933985330E11   -2.671211394346406E1   1.100338674264826E2  -6.948170114960892   7.337974791033710E1  -6.943300528945638   3.778739402988745E1  -2.267304375027521E1  -1.180179876121387E2  
 1.613325183374083E11   -2.644227154764001E1   1.077255273231530E2  -6.890538743600131   4.872871571723533E1  -6.898992794351617   1.300400663076498E1  -2.168849139905507E1  -1.410750310332581E2  
 1.613447432762836E11   -2.536410422515176E1   1.045592494237131E2  -6.903765995781719   2.354776079884291E1  -6.895841797756933  -1.188243642409504E1  -2.239801833447852E1  -1.659639230070784E2  
 1.613569682151589E11   -2.382447629038293E1   9.357989042159632E1  -6.925092084689115  -9.280040647813629E-1  -6.918146201767010  -3.680441588501994E1  -2.532763720236764E1   1.656996379249393E2  
 1.613691931540342E11   -2.322147241689431E1   7.805953218097335E1  -6.967160970279156  -2.596805179368555E1  -6.959620282070929  -6.132367505009972E1  -3.277145058723352E1   1.319690761218091E2  
 1.613814180929096E11   -2.349286130206369E1   6.015164267489001E1  -7.026109651914225  -5.020162632863698E1  -7.065159720982758  -8.650894686946936E1  -3.624428248864883E1  -4.226413038624457E1  
 1.613936430317849E11   -2.493548061678196E1   4.541163334446342E1  -7.083939249918797  -7.435560365617256E1  -7.089710558357053  -1.105782843506557E2  -2.555480651648562E1  -8.249433924189390E1  
 1.614058679706602E11   -2.688095607843635E1   3.584374727301298E1  -7.045980991189398  -9.871977785628781E1  -7.083667455195483  -1.350349096618076E2  -2.168401490065936E1  -1.121197376104209E2  
 1.614180929095355E11   -2.955921704104800E1   2.958770521594071E1  -7.060383339163844  -1.228126041979221E2  -7.066560711049656  -1.600318026348251E2  -1.986109675891233E1  -1.405087805974595E2  
 1.614303178484108E11   -3.188904394317893E1   4.646909753389340E1  -7.049624756933929  -1.473481432181694E2  -7.094501558520522   1.755696319922516E2  -1.943487714692761E1  -1.698051851744131E2  
 1.614425427872861E11   -2.961769844299238E1   6.210823784387210E1  -7.067156033382452  -1.718452856905078E2  -7.089457399309498   1.510832025541112E2  -2.018591759555272E1   1.593221829111540E2  
 1.614547677261614E11   -2.711121353650681E1   5.540622460702807E1  -7.114031852203029   1.634920863013401E2  -7.146948374206650   1.263047499546096E2  -2.201591233076528E1   1.254547577777669E2  
 1.614669926650367E11   -2.548673905282535E1   3.666166508879044E1  -7.191612534199829   1.392787257628496E2  -7.212346358810174   1.015601642883194E2  -2.570251251609571E1   8.131154602143687E1  
 1.614792176039120E11   -2.557812081778117E1   1.689295498836533E1  -7.199462701385834   1.152506779232763E2  -7.239767863528190   7.791369186251021E1  -2.994996367040282E1   1.643705270839199E1  
 1.614914425427873E11   -2.581991190284560E1  -5.433115545186923  -7.158798684343403   9.136100134113380E1  -7.189938473680201   5.395800105525482E1  -2.881050827398064E1  -6.252939381136048E1  
 1.615036674816626E11   -2.673076998666838E1  -3.541483785667298E1  -7.055336187367680   6.667720187358228E1  -7.080318817710713   2.961151622813027E1  -2.607104388645401E1  -1.122969266894706E2  
 1.615158924205379E11   -2.842309454195700E1  -7.461512010418048E1  -7.032069565444529   4.217468076382196E1  -7.072397152605078   4.531629133543544  -2.456296269274950E1  -1.514255937687727E2  
 1.615281173594132E11   -3.036168475079356E1  -1.230391481633861E2  -7.018721866581096   1.798650622372845E1  -7.082266959347354  -2.050554946521301E1  -2.508069494267328E1   1.713954954550570E2  
 1.615403422982885E11   -3.086783181433933E1  -1.761675850671997E2  -7.068678880088503  -7.047689317163799  -7.084729601999484  -4.522572782734704E1  -2.752619985860487E1   1.286274616219217E2  
 1.615525672371638E11   -3.031839913648784E1   1.454198910835009E2  -7.161265941171246  -3.217064099896793E1  -7.191942700896682  -6.971365101950001E1  -3.193305147958282E1   5.932094577405904E1  
 1.615647921760391E11   -2.911082843202691E1   1.196891993726528E2  -7.231345714808202  -5.572048797260000E1  -7.245522366461471  -9.342672044101762E1  -3.003404484078147E1  -4.009146461661535E1  
 1.615770171149144E11   -2.833038636298149E1   9.233277960510647E1  -7.138751367662157  -7.946548580391465E1  -7.168564304644241  -1.174661288588076E2  -2.548536432997811E1  -9.369728279315879E1  
 1.615892420537897E11   -2.995095228868868E1   6.987977014110010E1  -7.067415373973046  -1.043322719993528E2  -7.092954032467435  -1.420665106979441E2  -2.261150768997182E1  -1.309825292192790E2  
 1.616014669926650E11   -3.333641450370713E1   5.711568892890411E1  -7.019468693816263  -1.288527245698729E2  -7.032615836433624  -1.667409540305931E2  -2.092677439206842E1  -1.630129534454223E2  
 1.616136919315403E11   -3.734148825742096E1   8.423365659625331E1  -6.991673449143422  -1.537478987772648E2  -7.018976197718499   1.684181613389729E2  -2.033925694713718E1   1.630848785083576E2  
 1.616259168704157E11   -3.432245045308409E1   1.062436119480927E2  -6.999210726998764  -1.781696166979880E2  -7.063023480942137   1.434173753698031E2  -2.068663752400410E1   1.278936718291904E2  
 1.616381418092910E11   -3.238538817578959E1   1.042533984937971E2  -7.099507095165017   1.572091748799043E2  -7.126330721385443   1.194704988739331E2  -2.220782577618795E1   9.014589474347336E1  
 1.616503667481663E11   -3.113270303295501E1   1.088740550123107E2  -7.119711982791706   1.337684121419196E2  -7.161143753854616   9.495767176678936E1  -2.524471026821185E1   4.864616636980934E1  
 1.616625916870416E11   -2.884517730099552E1   1.020385925313629E2  -7.010609413288671   1.094793027762200E2  -7.032517069956046   7.145314607470961E1  -2.948896237375767E1   1.035215496254802  
 1.616748166259169E11   -2.864865846132217E1   9.641635937984913E1  -6.910286711313010   8.460332760362516E1  -6.945561337518355   4.695385517516314E1  -3.280237842077072E1  -7.275712923197696E1  
 1.616870415647922E11   -2.852071155020854E1   1.028736661727179E2  -6.851800567744569   5.903249666381790E1  -6.846473252762322   2.186985163691600E1  -3.051275932739979E1  -1.478757461427323E2  
 1.616992665036675E11   -2.592931879770925E1   1.081474265571811E2  -6.846410035887523   3.354014900721311E1  -6.887623513591689  -3.570245786415750  -2.716378934580524E1   1.568400752821375E2  
 1.617114914425428E11   -2.314526623813022E1   1.008980714529493E2  -6.938233681718720   8.802660698152044  -6.961096782437487  -2.842052550076877E1  -2.512588376337635E1   1.115676909873676E2  
 1.617237163814181E11   -2.153013125735900E1   8.659561274905158E1  -7.092832719627877  -1.603526171197800E1  -7.082525303248450  -5.286392900316243E1  -2.398035749668092E1   6.732634278560909E1  
 1.617359413202934E11   -2.073566700387440E1   7.250404363194805E1  -7.163446677682089  -3.961153874945038E1  -7.208658837138843  -7.670907606586685E1  -2.395749765188243E1   2.393081814784837E1  
 1.617481662591687E11   -2.017044899074941E1   5.807344175853437E1  -7.115526591449266  -6.347647770669415E1  -7.156148214261310  -1.002811323946928E2  -2.471323141831935E1  -1.798970086414005E1  
 1.617603911980440E11   -2.043674042645766E1   4.120290839318189E1  -7.019806795268194  -8.750097132938365E1  -7.046286247494598  -1.248056016969792E2  -2.538859954722004E1  -6.108384018237443E1  
 1.617726161369193E11   -2.196961052975901E1   2.578626165943030E1  -6.949357843892080  -1.124616186886588E2  -6.981994737031252  -1.492391348974465E2  -2.590683546803976E1  -1.091122137649667E2  
 1.617848410757946E11   -2.505127815992173E1   1.970560310316613E1  -6.896304642094376  -1.373890152349419E2  -6.936533068611940  -1.739683689418971E2  -2.621551675171092E1  -1.619511668818786E2  
 1.617970660146699E11   -2.784774050687372E1   3.699557810351752E1  -6.925558967160226  -1.629165761601342E2  -6.965265530332779   1.611497697980387E2  -2.538064405576850E1   1.422398284804116E2  
 1.618092909535452E11   -2.594307022730607E1   5.814215683908439E1  -7.003970025420093   1.718296786246445E2  -7.051214679602406   1.360937449825649E2  -2.387797437707714E1   9.071582605137505E1  
 1.618215158924205E11   -2.311799957853689E1   5.843373221073853E1  -7.138206436737487   1.477796785677426E2  -7.186983958845220   1.117594122904648E2  -2.270281178541095E1   4.465899243726582E1  
 1.618337408312958E11   -2.092572341709413E1   5.163763988317806E1  -7.156118728878957   1.241212693539053E2  -7.200989679302275   8.884492104877442E1  -2.247921072061932E1   2.911428351969687  
 1.618459657701711E11   -1.938514294787081E1   3.666059111597132E1  -7.067781886002116   9.974520228615714E1  -7.103917147474353   6.462150951094451E1  -2.292214569019430E1  -3.301572187054425E1  
 1.618581907090465E11   -1.911218738750197E1   1.866754033251840E1  -6.981709304803943   7.496656510103090E1  -7.024155859539899   3.983104818844187E1  -2.403872580659235E1  -6.709685905445988E1  
 1.618704156479218E11   -2.008985757543100E1   2.756244232822563  -6.937838601998830   4.991447936914182E1  -6.993234093115471   1.501320163139386E1  -2.641310560279011E1  -1.040138513031840E2  
 1.618826405867971E11   -2.197748394398654E1  -8.718772509649629  -6.953053577634424   2.486351449487003E1  -6.970229807064456  -9.628381554346534  -3.084460588478904E1  -1.553313990079162E2  
 1.618948655256724E11   -2.419508001933008E1  -1.058981735431431E1  -7.020018818996655   3.435940739469712E-1  -7.053877436512236  -3.485132671626176E1  -3.380285636823506E1   1.016002543601555E2  
 1.619070904645477E11   -2.628392927814705E1  -4.770773823273981  -7.188391112897756  -2.377164826453413E1  -7.212957452226577  -5.919670857213956E1  -2.790455775246034E1   2.118589211532648E1  
 1.619193154034230E11   -2.658050071130147E1   1.538995898975915E1  -7.183474730419089  -4.710710312049185E1  -7.199645386705913  -8.228579626637917E1  -2.480612168439906E1  -2.235906898737987E1  
 1.619315403422983E11   -2.356563276581789E1   2.183916790348204E1  -7.046441838192587  -7.158678556239578E1  -7.072268715142282  -1.063653395635697E2  -2.338956065576921E1  -5.280995135154904E1  
 1.619437652811736E11   -2.164617533655934E1   9.853664612791226  -6.969437829628993  -9.610467280745313E1  -7.004130188753893  -1.308537213762152E2  -2.233753453341378E1  -8.121412584475367E1  
 1.619559902200489E11   -2.120975366367487E1  -5.874787105782749  -6.941664689578822  -1.213108470227859E2  -6.941372916159310  -1.557304917288029E2  -2.206509032412273E1  -1.114732407737629E2  
 1.619682151589242E11   -2.184626642086701E1  -2.098797917731579E1  -6.933974749852339  -1.464465228413386E2  -6.950918445214654   1.792961860300845E2  -2.253041240367294E1  -1.439765899286105E2  
 1.619804400977995E11   -2.351422755782708E1  -3.330895649980209E1  -6.971435301050829  -1.710385051128113E2  -6.958070729134906   1.543840017288839E2  -2.427547385104715E1   1.797018446736842E2  
 1.619926650366748E11   -2.589738452601002E1  -4.268592000918374E1  -7.086792376735802   1.644115641066105E2  -7.097624119004820   1.294410067859642E2  -2.870949912475882E1   1.363209025135680E2  
 1.620048899755501E11   -3.080351650911639E1  -4.195903750243966E1  -7.149216756124189   1.407484219810988E2  -7.130978017515559   1.060694917424011E2  -4.141385954734501E1   7.895129514910677E1  
 1.620171149144254E11   -3.259449589494739E1   3.939097587151605  -7.019365345161101   1.165292019340911E2  -7.036214851574624   8.187964140728991E1  -3.836773320100016E1  -1.009716378478240E2  
 1.620293398533007E11   -2.821277711973541E1   1.112929731029112E1  -6.968993637158683   9.166370567306058E1  -6.955763759965113   5.695509126140470E1  -3.181345897592698E1  -1.308640121984631E2  
 1.620415647921760E11   -2.662580088849866E1   3.761890909338896  -6.930144063912000   6.683711112578466E1  -6.918297644204563   3.192816476060005E1  -2.821867221645369E1  -1.626969564735533E2  
 1.620537897310513E11   -2.673049405381842E1  -5.412905670939892  -6.939272782426466   4.178144694020991E1  -6.948713755318812   7.182580126645883  -2.577888410615797E1   1.650744581040096E2  
 1.620660146699266E11   -2.745422294025689E1  -5.938735121917327  -7.025629946167246   1.687589725237229E1  -7.007597207444649  -1.794769275096434E1  -2.410628569122430E1   1.288169740194967E2  
 1.620782396088019E11   -2.807834496528677E1  -1.769341217432387  -7.155588421867364  -7.081929221435968  -7.163261981088435  -4.231329328794103E1  -2.299605252772251E1   8.874984727808221E1  
 1.620904645476773E11   -2.830853249394363E1   8.297189176294948  -7.265655987436067  -3.080012075102296E1  -7.249689623971282  -6.585862435918516E1  -2.349386286897306E1   4.630964031759573E1  
 1.621026894865526E11   -2.590292681909782E1   2.141405720671758E1  -7.139544666057454  -5.370521558387180E1  -7.152365672572244  -8.968585035606932E1  -2.550381546662958E1   9.210658498437230  
 1.621149144254279E11   -2.331714971975163E1   1.158713016689076E1  -7.001634379499115  -7.857370299497738E1  -7.005914010284042  -1.141264589619146E2  -2.829890947155926E1  -1.928976103007954E1  
 1.621271393643032E11   -2.225882740470104E1  -4.354819301801224  -6.934883576090217  -1.032378167371544E2  -6.943173732895620  -1.392959468227028E2  -3.220136775088373E1  -4.956664474368378E1  
 1.621393643031785E11   -2.264391811713533E1  -2.045578949911916E1  -6.904280094930231  -1.280712752341463E2  -6.894130886864139  -1.641785073907113E2  -4.165716395419567E1  -1.087293705251542E2  
 1.621515892420538E11   -2.463836127412560E1  -3.280200739140749E1  -6.914158748994083  -1.530040913519488E2  -6.922783706310783   1.705638836917472E2  -3.528180275487297E1   1.024387538854373E2  
 1.621638141809291E11   -2.804596420715937E1  -3.394240356117980E1  -6.988238798673887  -1.775772387771226E2  -7.000408357362044   1.456810293454582E2  -2.745157203738402E1   5.969851042334788E1  
 1.621760391198044E11   -3.160711431253542E1  -8.284333898668775  -7.089898974043964   1.579322768500671E2  -7.093564498480379   1.214478582206671E2  -2.339069817339320E1   2.342014122129062E1  
 1.621882640586797E11   -2.753738959905665E1   3.033072996748642E1  -7.091916962687855   1.343249329200520E2  -7.104789229770027   9.756336466395690E1  -2.179079805533365E1  -1.251421110846136E1  
 1.622004889975550E11   -2.243800540518537E1   2.359142244392383E1  -7.024447014057254   1.097945553739122E2  -7.024395336408945   7.336842966357985E1  -2.100899205746448E1  -4.365402904591110E1  
 1.622127139364303E11   -1.990894139948128E1   6.995562568694086  -6.999409276555743   8.541559040581629E1  -7.009822071095498   4.852940032287678E1  -2.076447795252506E1  -7.299817648199603E1  
 1.622249388753056E11   -1.873049950855164E1  -1.116140018806342E1  -6.988819226974930   6.095210399797601E1  -6.969727105118843   2.392522038064398E1  -2.083300994477001E1  -1.045997978053268E2  
 1.622371638141809E11   -1.853729188522705E1  -2.848666214001324E1  -6.969183966457024   3.630446235293501E1  -6.988861087440491  -8.129623639957527E-1  -2.133771402908083E1  -1.377754382978982E2  
 1.622493887530562E11   -1.905862649923692E1  -4.583575130967888E1  -7.007702045750250   1.158660423900763E1  -7.013958915123363  -2.560488105800037E1  -2.247670829982705E1  -1.728538966017987E2  
 1.622616136919316E11   -2.037406000808502E1  -6.376703430006020E1  -7.026934391518928  -1.204273831435171E1  -7.078262287166285  -4.951759882099041E1  -2.495085078169674E1   1.521557202055384E2  
 1.622738386308069E11   -2.342588345601414E1  -8.053581650710453E1  -6.974221333807196  -3.612088790954730E1  -7.016007934905366  -7.303816148808696E1  -2.846785564211919E1   1.294908997976412E2  
 1.622860635696822E11   -2.900749492246116E1  -8.643204233916356E1  -6.840044326441152  -6.060454475221114E1  -6.875766723654679  -9.787852998356387E1  -3.085961757186230E1   1.233215352561183E2  
 1.622982885085575E11   -3.565882220116891E1  -4.339665533231455E1  -6.760548530872748  -8.546264633049539E1  -6.782633030027371  -1.231167126627746E2  -3.140340516312646E1   1.237784606484421E2  
 1.623105134474328E11   -3.026476932332898E1   2.255461877417480  -6.726381059086031  -1.107544292948172E2  -6.777277474483371  -1.481629520316441E2  -2.956983715774171E1   1.298256668447347E2  
 1.623227383863081E11   -2.590993112258986E1  -1.608604012805080E-1  -6.776771598685061  -1.358125166883765E2  -6.815584122612939  -1.729466484868868E2  -2.570477742508482E1   1.200751018681009E2  
 1.623349633251834E11   -2.336163364906963E1  -9.642827621260619  -6.857398199105337  -1.606644208715149E2  -6.895330534179671   1.617805592197136E2  -2.247059285061433E1   9.978859981712240E1  
 1.623471882640587E11   -2.237273132463932E1  -2.182605966856357E1  -6.968791457563300   1.746054943121058E2  -7.037390550306697   1.378834065059476E2  -2.049278423790509E1   7.278688336312379E1  
 1.623594132029340E11   -2.253052236869690E1  -2.930219482446971E1  -6.978140480046530   1.513926048325084E2  -7.023807722284631   1.143126408395652E2  -1.997802492605895E1   4.634590798971745E1  
 1.623716381418093E11   -2.217314922730716E1  -3.167815440272341E1  -6.884197255170633   1.270722815167777E2  -6.933728286746308   8.970820164431432E1  -2.002829617554203E1   2.545349133772967E1  
 1.623838630806846E11   -2.128565777896402E1  -3.921639103533484E1  -6.826426527809999   1.023055036129737E2  -6.874021151235747   6.442517483411808E1  -2.019786325695050E1   4.639178281807438  
 1.623960880195599E11   -2.099495523424664E1  -4.914444451713772E1  -6.801099671710203   7.699342787490083E1  -6.850194847234805   4.059972153053742E1  -2.099956882306744E1  -1.692705899788429E1  
 1.624083129584352E11   -2.132708974896030E1  -6.020065898254126E1  -6.774140608260030   5.270716186024139E1  -6.837964103927122   1.549686323270573E1  -2.273717880216508E1  -3.874358859969549E1  
 1.624205378973105E11   -2.224870437175614E1  -7.044105448174354E1  -6.793815541108127   2.754319585343134E1  -6.863405060565349  -9.230680140571250  -2.600139157516714E1  -6.033898794236196E1  
 1.624327628361858E11   -2.361411372393452E1  -7.826066243410928E1  -6.844563691739443   2.654449383401875  -6.931097741710964  -3.378133809076398E1  -3.327619833885363E1  -6.556085817522120E1  
 1.624449877750611E11   -2.586294878989790E1  -8.360854226805326E1  -6.909244560190260  -2.163050067942545E1  -6.970217735447529  -5.812634121544207E1  -3.386758563787818E1  -1.315572123648398E1  
 1.624572127139364E11   -2.877981081600630E1  -7.533658864209998E1  -6.859839974230499  -4.551218412540197E1  -6.929456417445647  -8.265955439072658E1  -3.122743771870650E1  -1.816774307089603E1  
 1.624694376528117E11   -2.912770554000407E1  -5.684232180333230E1  -6.822659727382249  -7.094110534683085E1  -6.883054909371676  -1.068517476401423E2  -3.164778769431610E1  -2.729646428921506E1  
 1.624816625916870E11   -2.752347194916329E1  -4.614308423984050E1  -6.814492331227334  -9.521754139448892E1  -6.881389431356268  -1.316651453631209E2  -3.295016431232634E1  -3.270425618770675E1  
 1.624938875305624E11   -2.604076505623394E1  -4.479824908016731E1  -6.813060587775426  -1.199284785530555E2  -6.891782965968027  -1.562202119812504E2  -3.775287483980612E1  -3.700127938987221E1  
 1.625061124694377E11   -2.542239618097590E1  -5.060665711239578E1  -6.880195171385753  -1.452153160606768E2  -6.958442025105377   1.786073154104650E2  -4.257217551234511E1   4.809747480527912E1  
 1.625183374083130E11   -2.491611444319499E1  -5.768012153800193E1  -6.995321042679987  -1.698866859929975E2  -7.052370182072886   1.541680005115025E2  -3.063128724294341E1   6.328401303743794E1  
 1.625305623471883E11   -2.627700180666284E1  -6.892195028053881E1  -7.141847445833408   1.659465622310145E2  -7.195109533073556   1.305408689702740E2  -2.510611906403940E1   4.126354318695962E1  
 1.625427872860636E11   -2.940138105529533E1  -6.035423648577545E1  -7.145411516099128   1.426773386473970E2  -7.178994398493940   1.071131626632659E2  -2.300017081495619E1   1.414319054014934E1  
 1.625550122249389E11   -2.780148741992799E1  -3.270996601265866E1  -7.034886757051927   1.181422129399591E2  -7.041570745453373   8.312021467233632E1  -2.260727213789033E1  -7.460735522589358  
 1.625672371638142E11   -2.482938062155388E1  -3.459417473564474E1  -6.943731727053740   9.391659480790753E1  -6.958372504540046   5.859536118649245E1  -2.299500971468206E1  -2.616731283797058E1  
 1.625794621026895E11   -2.310939559645530E1  -4.380488795631509E1  -6.884175523522435   6.862307200332907E1  -6.929445919409138   3.437264047708980E1  -2.422475875751872E1  -4.446736260463709E1  
 1.625916870415648E11   -2.241448025790449E1  -5.519566182707280E1  -6.839776600146676   4.393096092865492E1  -6.864971997835520   9.840416724772702  -2.651503337474874E1  -6.433882319550526E1  
 1.626039119804401E11   -2.228703665336714E1  -6.597243110971517E1  -6.853547365162314   1.919414430344832E1  -6.872077179442850  -1.578302270875766E1  -3.242303851491362E1  -8.273617676577653E1  
 1.626161369193154E11   -2.304304886556258E1  -7.782741068867912E1  -6.942586820303275  -5.797730827843328  -6.945374803670545  -3.997034891938289E1  -3.957479889568222E1   1.458627965863556E1  
 1.626283618581907E11   -2.516811165076619E1  -8.459591468377083E1  -6.911726034506577  -2.936205715356197E1  -6.930571816709441  -6.372159656818562E1  -2.979941696999858E1   1.219885765982340E1  
 1.626405867970660E11   -2.709179512235458E1  -7.702796364063548E1  -6.833744578620300  -5.427273835095151E1  -6.871528541586984  -8.864895061447271E1  -2.702563148829055E1  -6.458469396397375  
 1.626528117359413E11   -2.710515498750590E1  -6.388636620858080E1  -6.787692899967869  -7.891182475785378E1  -6.829195496744271  -1.131490128530685E2  -2.621930887605975E1  -2.165225262840486E1  
 1.626650366748166E11   -2.597693102275701E1  -5.949079577221053E1  -6.778181709836536  -1.040009395433415E2  -6.820422428271860  -1.385454277843718E2  -2.647283804318873E1  -3.911134434656616E1  
 1.626772616136919E11   -2.484688446093826E1  -5.970367201204587E1  -6.769682109607808  -1.292170823636609E2  -6.822111968567922  -1.630161506841229E2  -2.835503438467958E1  -6.063692556451032E1  
 1.626894865525672E11   -2.367588379121391E1  -6.203907763066074E1  -6.822128139780163  -1.542043499352199E2  -6.870368932426536   1.716995165509254E2  -3.446894102229061E1  -9.249447733699792E1  
 1.627017114914425E11   -2.291561592093889E1  -7.142234620446128E1  -6.945554914343105  -1.784909778331627E2  -6.963541535349048   1.472869221249592E2  -4.041685335955702E1   9.488664797077763E1  
 1.627139364303178E11   -2.360408687463043E1  -8.150665176059846E1  -7.011968762235246   1.579052903892307E2  -7.048954590840529   1.237949835752878E2  -2.959616491652891E1   4.950489263249559E1  
 1.627261613691932E11   -2.473323797900882E1  -8.388898030175854E1  -6.933650209590238   1.337412897005937E2  -6.990275563784693   9.948500401602676E1  -2.643163627488990E1   2.783751350263690E1  
 1.627383863080685E11   -2.495674848744651E1  -7.797900767271281E1  -6.880711638442864   1.093392484793779E2  -6.886284384262707   7.532148727194330E1  -2.469341605636751E1   1.355252603612128E1  
 1.627506112469438E11   -2.448792385621607E1  -7.922795847678648E1  -6.807090556899302   8.453753947242548E1  -6.850356126876780   4.990862704690414E1  -2.385094326050878E1  -7.379474444547790E-1  
 1.627628361858191E11   -2.443154624014109E1  -8.313403030870288E1  -6.784917300045344   5.925780633538193E1  -6.844876802372410   2.525465486777642E1  -2.403430346361682E1  -1.566258815554483E1  
 1.627750611246944E11   -2.439836093601410E1  -8.654517878384907E1  -6.846767726649807   3.441010314944568E1  -6.886321332932309   1.816856977551349E-1  -2.549198586047602E1  -2.547260565008629E1  
 1.627872860635697E11   -2.448805301775567E1  -9.159695868270768E1  -6.991886942932001   9.315161494227951  -7.013835897073933  -2.431846358657866E1  -2.766037612775486E1  -1.764273338026455E1  
 1.627995110024450E11   -2.596222472577414E1  -1.004247358245324E2  -7.049960266947625  -1.434567369985999E1  -7.110059847020426  -4.770853867581973E1  -2.591966120687095E1  -7.635231748578295  
 1.628117359413203E11   -2.891517427109579E1  -9.401945239648015E1  -6.961957004888837  -3.845232125294968E1  -6.999375081932294  -7.193445199570780E1  -2.490671545080561E1  -1.542342305972608E1  
 1.628239608801956E11   -2.856876658546644E1  -6.566380972030648E1  -6.867786642304341  -6.239158538776650E1  -6.902527449388848  -9.637105916278097E1  -2.516681657598926E1  -2.008225241638525E1  
 1.628361858190709E11   -2.555909129909884E1  -5.705666636883741E1  -6.811074484314567  -8.737698248738138E1  -6.857745940541474  -1.212377124405964E2  -2.522242440793299E1  -1.997488218404619E1  
 1.628484107579462E11   -2.342478829090639E1  -6.353663847184458E1  -6.788944271561224  -1.122010983110071E2  -6.822147658635163  -1.469031779721915E2  -2.483732806165720E1  -1.979019189993284E1  
 1.628606356968215E11   -2.197395925002982E1  -7.173263106441256E1  -6.787200568099631  -1.375226281293085E2  -6.834115579968947  -1.720088308746235E2  -2.426568791142125E1  -2.440396748319976E1  
 1.628728606356968E11   -2.112970885026952E1  -8.181642397351631E1  -6.878640188680878  -1.623615346808880E2  -6.914330287793007   1.631198204268992E2  -2.432646678949566E1  -2.879432377468167E1  
 1.628850855745721E11   -2.084370500596669E1  -9.463753011890232E1  -6.994567804135164   1.729574617404388E2  -7.047390271669336   1.390496246006421E2  -2.406554900990632E1  -3.013925594985673E1  
 1.628973105134475E11   -2.170798707037588E1  -1.056232116282249E2  -7.038115814733285   1.494136532586899E2  -7.077359383695994   1.144410891531815E2  -2.373597026445619E1  -3.951118904002045E1  
 1.629095354523228E11   -2.307583642344630E1  -1.100654373852586E2  -7.028811154249964   1.250223801241063E2  -7.075167262358558   8.982216491032534E1  -2.476383095552142E1  -5.124984717849358E1  
 1.629217603911981E11   -2.392790441786141E1  -1.096693350947242E2  -7.003536022053167   1.006974601093913E2  -7.081563907595297   6.526400541302857E1  -2.715165366853968E1  -5.751038587933158E1  
 1.629339853300734E11   -2.420321942115790E1  -1.068625566182798E2  -7.015995687277166   7.625266147863988E1  -7.070453980810660   4.073422507577119E1  -3.020375124721294E1  -4.828799543159505E1  
 1.629462102689487E11   -2.399055857304368E1  -1.053538606875478E2  -7.039203621368450   5.134587819224888E1  -7.069140154792202   1.631003816598165E1  -3.142730916563475E1  -2.571502983586877E1  
 1.629584352078240E11   -2.351784651534407E1  -1.062789885142797E2  -7.061850513359797   2.624483955359333E1  -7.120587744826726  -8.507187491322249  -3.040808614555884E1  -8.343617414567703  
 1.629706601466993E11   -2.295042366307377E1  -1.137508996094072E2  -7.159118673675125   2.200362122619316  -7.188774666582370  -3.274288838155662E1  -2.820865094973259E1   6.602688985396624  
 1.629828850855746E11   -2.381322086795536E1  -1.224522742735971E2  -7.171449085564661  -2.125469085904141E1  -7.201104590713304  -5.713216212440848E1  -2.575536680114372E1   7.885784375678093  
 1.629951100244499E11   -2.529876056338226E1  -1.225980206450483E2  -7.123083747013770  -4.566901331808234E1  -7.170557223673482  -8.158934817029771E1  -2.439955186118420E1   6.315110282364708  
 1.630073349633252E11   -2.605217489061827E1  -1.145682355840494E2  -7.084691703761766  -7.033875371561378E1  -7.132993209040504  -1.057480851628091E2  -2.300387376970648E1   7.464142563232756  
 1.630195599022005E11   -2.503128572921043E1  -1.082943434045359E2  -7.077750661461371  -9.525570665737098E1  -7.129197862262294  -1.302733288534226E2  -2.105708768566675E1   5.648058462033476  
 1.630317848410758E11   -2.367703688658785E1  -1.093355555722704E2  -7.093735615946879  -1.199861099542302E2  -7.122073018448615  -1.554494771056573E2  -1.908005266197509E1  -1.078461583487939  
 1.630440097799511E11   -2.242932634315394E1  -1.160379103234098E2  -7.142798738018684  -1.444946610852098E2  -7.179855434826886  -1.799152232877088E2  -1.775256993446147E1  -1.170979334381963E1  
 1.630562347188264E11   -2.153020113358229E1  -1.279663581194317E2  -7.234781397612850  -1.691439806642678E2  -7.269536848758507   1.556744060077034E2  -1.695351708328948E1  -2.312270771473920E1  
 1.630684596577017E11   -2.192426285789816E1  -1.440747449623262E2  -7.240995264932735   1.675255621009886E2  -7.324363878571354   1.318302564331065E2  -1.646771473545156E1  -3.565870502714596E1  
 1.630806845965770E11   -2.374523506725149E1  -1.587189632216806E2  -7.206418362437334   1.432907130910011E2  -7.266255512979923   1.072495565846001E2  -1.664952597522704E1  -5.024556640462252E1  
 1.630929095354523E11   -2.693245778165927E1  -1.645284557177828E2  -7.131710397433050   1.187916465640527E2  -7.195618968810586   8.285046700043206E1  -1.787836189663335E1  -6.342325061933040E1  
 1.631051344743276E11   -3.080392435442161E1  -1.508375571279651E2  -7.097009865003660   9.419043282445237E1  -7.139707001320851   5.886307491929643E1  -2.002617654272178E1  -7.031766926591381E1  
 1.631173594132029E11   -3.014361160758431E1  -1.188347495144623E2  -7.051674542118610   6.980911478261102E1  -7.090309917289588   3.342255476273371E1  -2.240625802667901E1  -6.531132432174429E1  
 1.631295843520783E11   -2.678069113105800E1  -1.123372733533416E2  -7.059979618729702   4.478063028972171E1  -7.121060549999037   8.450248342872216  -2.269560507074014E1  -5.000074108069996E1  
 1.631418092909536E11   -2.402171240664212E1  -1.203281830172327E2  -7.145988289583182   2.014714252568950E1  -7.218052925127093  -1.641784696650278E1  -2.106452400490761E1  -4.246974781110092E1  
 1.631540342298289E11   -2.275051935623796E1  -1.380257807662326E2  -7.223049242011877  -4.259749119030110  -7.258653053815792  -4.092885999667269E1  -1.935507528692619E1  -4.630218528686191E1  
 1.631662591687042E11   -2.344008535197972E1  -1.563220164604468E2  -7.255866362069528  -2.812980755034131E1  -7.299474588245158  -6.536901938370268E1  -1.832087517080398E1  -5.733438878530733E1  
 1.631784841075795E11   -2.527908277631322E1  -1.697211965784418E2  -7.217058920182041  -5.258099162361953E1  -7.265022423297063  -8.913892928116671E1  -1.856622810019485E1  -7.044439709599251E1  
 1.631907090464548E11   -2.841306425968414E1  -1.764182553077426E2  -7.172905289668330  -7.669234839371669E1  -7.246540673616971  -1.140781687536891E2  -2.014844011581444E1  -8.063490167082260E1  
 1.632029339853301E11   -3.213488962345077E1  -1.653228348527311E2  -7.161227316601417  -1.010120781059190E2  -7.247733973041489  -1.387231160428507E2  -2.274608289147707E1  -8.083901300427715E1  
 1.632151589242054E11   -3.226797393872665E1  -1.325150227184703E2  -7.162026030111711  -1.255543213243607E2  -7.232320362906314  -1.626746043732343E2  -2.423608294020575E1  -6.311567108373431E1  
 1.632273838630807E11   -2.782778287088156E1  -1.245330948903403E2  -7.187534556977520  -1.503770344630978E2  -7.254872204558174   1.722596022433185E2  -2.207611220277990E1  -4.706491049990571E1  
 1.632396088019560E11   -2.550727738267089E1  -1.408230774526453E2  -7.201883303892917  -1.748372149786178E2  -7.287230642333361   1.479429463884624E2  -1.940268008647202E1  -4.975382794591864E1  
 1.632518337408313E11   -2.509882160810173E1  -1.614966602672380E2  -7.211532109154644   1.610160294273361E2  -7.267422023507461   1.238653342996885E2  -1.770376427008753E1  -6.174603063919779E1  
 1.632640586797066E11   -2.632213739930817E1   1.762548041832815E2  -7.188284494160280   1.369146932140227E2  -7.239921531396630   9.960592340237707E1  -1.738265713640067E1  -7.753240110882477E1  
 1.632762836185819E11   -2.907195254038061E1   1.497562642751470E2  -7.160488655843408   1.122895188884619E2  -7.214662409439938   7.474487914904151E1  -1.824097777428898E1  -9.253933882201348E1  
 1.632885085574572E11   -3.513184706221544E1   1.035589858239860E2  -7.123704060588020   8.780199608420494E1  -7.163695370485703   5.032787555870717E1  -2.035716551800064E1  -1.033343646431333E2  
 1.633007334963325E11   -3.499357610194454E1   2.779297557196852  -7.113921603430404   6.351746642621511E1  -7.154459088700647   2.527706306374682E1  -2.375809727863729E1  -1.019403399919444E2  
 1.633129584352078E11   -2.822723042131782E1  -4.993906859302883E1  -7.087035599695892   3.884998702245591E1  -7.126122981268598   8.592575095650893E-1  -2.491449561538651E1  -7.567057988953194E1  
 1.633251833740831E11   -2.478268234007408E1  -8.095396074806386E1  -7.066565334224292   1.354022579437805E1  -7.133763979513257  -2.344948916255284E1  -2.186704254518704E1  -6.504716471690452E1  
 1.633374083129584E11   -2.338782300292554E1  -1.053478135642181E2  -7.088193203547098  -1.111384454894625E1  -7.136464852817188  -4.819444722021339E1  -1.948748685693425E1  -7.454647089212082E1  
 1.633496332518337E11   -2.318968108236598E1  -1.253457673800549E2  -7.097210212494036  -3.567507072255754E1  -7.189181168120476  -7.324298666696063E1  -1.868502509449672E1  -9.118953491346886E1  
 1.633618581907091E11   -2.393767310685813E1  -1.405416415936228E2  -7.173740785931376  -6.048170282067981E1  -7.235335670486299  -9.799421040924013E1  -1.942687385409953E1  -1.102651431815490E2  
 1.633740831295844E11   -2.567959447157539E1  -1.527997456262984E2  -7.199891110996835  -8.482785687387388E1  -7.263263460792424  -1.218224080626198E2  -2.212092592611782E1  -1.290251800298124E2  
 1.633863080684597E11   -2.890494461344768E1  -1.527558748270747E2  -7.215116697359041  -1.096158169696916E2  -7.274889515641263  -1.457981266525196E2  -2.871828729430837E1  -1.422034762749608E2  
 1.633985330073350E11   -2.964443293945408E1  -1.249908198486640E2  -7.241682275151081  -1.338858670221980E2  -7.307926231322720  -1.703118907910965E2  -3.534819170098090E1  -3.610236009961516E1  
 1.634107579462103E11   -2.579949158068503E1  -1.157468546758881E2  -7.207434340478179  -1.584751679620112E2  -7.254543043411233   1.656453122867845E2  -2.388463496201437E1  -3.051000650424678E1  
 1.634229828850856E11   -2.320446650103303E1  -1.258444914321008E2  -7.173740072665628   1.770218409796347E2  -7.250433612450791   1.407710284062238E2  -1.979485676846256E1  -5.134075431698905E1  
 1.634352078239609E11   -2.184575711372684E1  -1.391944500921611E2  -7.192991551235661   1.523534859080026E2  -7.236962264122155   1.161377625779297E2  -1.811053600987513E1  -7.315533722746795E1  
 1.634474327628362E11   -2.124046417889195E1  -1.553410830590091E2  -7.226892781407100   1.272025955874128E2  -7.291138349154987   9.099611912770465E1  -1.816287509488855E1  -9.498343531705703E1  
 1.634596577017115E11   -2.129627872779479E1  -1.714682477952966E2  -7.281994116631780   1.025988149082855E2  -7.354103309947327   6.722684376853206E1  -1.976989470878332E1  -1.148904219294141E2  
 1.634718826405868E11   -2.248194570354141E1   1.728557750761162E2  -7.356759819510757   7.821985692314824E1  -7.377518469045283   4.306198250976529E1  -2.366929569227143E1  -1.307853915820592E2  
 1.634841075794621E11   -2.493581632294548E1   1.601412823854194E2  -7.357523931907706   5.373089640408738E1  -7.413476883642015   1.929945953630242E1  -3.167192584373364E1  -1.167100387904309E2  
 1.634963325183374E11   -2.790246658239265E1   1.618688298797171E2  -7.339450958381419   2.945889934639795E1  -7.389260305492509  -4.434752655629113  -2.762920642443077E1  -4.663728450429286E1  
 1.635085574572127E11   -3.031359794070706E1   1.740571727505678E2  -7.282568984192497   5.090846382027753  -7.328322757989370  -2.903154257655882E1  -2.169774889640334E1  -5.418504174370469E1  
 1.635207823960880E11   -2.974460959581726E1  -1.632320708967181E2  -7.233395608066528  -1.988520251227564E1  -7.291114830342235  -5.390298374439250E1  -1.905153352289680E1  -7.351021188760491E1  
 1.635330073349633E11   -2.684419573477033E1  -1.571042000640964E2  -7.261248560608931  -4.456807607716802E1  -7.303573044784143  -7.834762155951792E1  -1.833848463732940E1  -9.569393089938669E1  
 1.635452322738386E11   -2.460526990557214E1  -1.671996404869138E2  -7.315176190731565  -6.982382451483994E1  -7.375834911712917  -1.034180782123454E2  -1.932066340720542E1  -1.188029449816760E2  
 1.635574572127139E11   -2.381541200127901E1   1.768720627513779E2  -7.417125508070100  -9.458475608261757E1  -7.462317441232908  -1.277693649618388E2  -2.227229928582623E1  -1.416317980440079E2  
 1.635696821515892E11   -2.423149736872086E1   1.623305552757058E2  -7.513092211117539  -1.181960401439537E2  -7.554725846939230  -1.516349119840693E2  -3.002170685292074E1  -1.655079337472511E2  
 1.635819070904645E11   -2.480293783456482E1   1.505847769526698E2  -7.522093730036723  -1.425738660413207E2  -7.584369287724654  -1.751542737898314E2  -3.418850663006099E1  -8.974261014889564  
 1.635941320293398E11   -2.603894518460734E1   1.349340293347307E2  -7.468999136177047  -1.666389131120325E2  -7.501039352931604   1.604089958618173E2  -2.359700982331929E1  -3.257773430055913E1  
 1.636063569682152E11   -2.876090944319207E1   1.160625297963454E2  -7.409631282704552   1.685590890182269E2  -7.434774532539451   1.367977087501636E2  -1.978185977598659E1  -5.554931472107711E1  
 1.636185819070905E11   -3.414567909621418E1   1.014736449983330E2  -7.369245409568880   1.444926409085862E2  -7.389883735580140   1.118065814015981E2  -1.826178342551537E1  -7.864819579118691E1  
 1.636308068459658E11   -5.011446616767424E1   1.147562570285450E2  -7.395230928804823   1.196232371460818E2  -7.404071355463253   8.721411463777760E1  -1.826707633608251E1  -1.019533311554171E2  
 1.636430317848411E11   -4.012966444652452E1  -1.247724495303275E2  -7.435785360167158   9.484227180519602E1  -7.481536826191990   6.277556105115487E1  -1.991953675815201E1  -1.240736912266417E2  
 1.636552567237164E11   -3.274928832812194E1  -1.201080082363661E2  -7.491706911915878   7.095591276766753E1  -7.555567701264558   3.839189361007014E1  -2.424195161621228E1  -1.441511250520976E2  
 1.636674816625917E11   -2.824909368330505E1  -1.354285727704298E2  -7.461821313290654   4.754971341311551E1  -7.504989153587441   1.455317611010503E1  -3.647072427601811E1  -1.320593393129547E2  
 1.636797066014670E11   -2.688254053005448E1  -1.535043908052085E2  -7.351518110120661   2.313969508807164E1  -7.374934501156761  -9.102301458852537  -2.788027711017892E1  -3.933768309422516E1  
 1.636919315403423E11   -2.695889602480408E1  -1.648527743255377E2  -7.269146926265059  -1.481611288431075  -7.290006748797580  -3.388047961561748E1  -2.177012207491364E1  -5.393273189262410E1  
 1.637041564792176E11   -2.716302849014367E1  -1.670737345406115E2  -7.203086143750315  -2.617334727073466E1  -7.225269691548764  -5.880578563124709E1  -1.924635722073174E1  -7.487614556846459E1  
 1.637163814180929E11   -2.664449446927569E1  -1.663741863857574E2  -7.192061955088419  -5.097211100036586E1  -7.206710011449684  -8.377344480641524E1  -1.865512668240915E1  -9.773024416863777E1  
 1.637286063569682E11   -2.573015896965970E1  -1.697480395583127E2  -7.216551665084968  -7.611371197885518E1  -7.245475585044753  -1.085905701922591E2  -1.990130266582350E1  -1.213821176714038E2  
 1.637408312958435E11   -2.527226560932347E1  -1.735452748460621E2  -7.291460446558634  -1.005468385177710E2  -7.304019427799274  -1.331841152639414E2  -2.384398037585090E1  -1.447829650970883E2  
 1.637530562347188E11   -2.435486217153204E1  -1.746993352588698E2  -7.327927564214951  -1.239357269231613E2  -7.336050017412049  -1.575084877545876E2  -3.779479414813264E1  -1.525155190486777E2  
 1.637652811735941E11   -2.271208207865298E1   1.780296528019959E2  -7.248397906680270  -1.485895917288780E2  -7.248217263778504   1.784029448594064E2  -2.735311536936951E1  -2.360961155089088E1  
 1.637775061124694E11   -2.198957387434965E1   1.647551531698081E2  -7.167447891682376  -1.731724684899045E2  -7.194912488159466   1.532252628357275E2  -2.084829746889774E1  -4.175731397919331E1  
 1.637897310513447E11   -2.202661411516897E1   1.525544183913942E2  -7.180438137673508   1.622797710400161E2  -7.191571031031206   1.283731569008155E2  -1.786152955163918E1  -6.320133408416095E1  
 1.638019559902200E11   -2.235134653074089E1   1.421735026706482E2  -7.198520746639766   1.373228751940353E2  -7.202427885599720   1.031771478027760E2  -1.662920207686074E1  -8.489032574279315E1  
 1.638141809290953E11   -2.293871308574956E1   1.325400750423912E2  -7.278235102165178   1.131980413883398E2  -7.286013476578676   7.845264432156097E1  -1.682410188737694E1  -1.062421487809197E2  
 1.638264058679706E11   -2.392626876422651E1   1.232535008482646E2  -7.367833193537501   8.885833251984485E1  -7.397902018824022   5.395915515428946E1  -1.864216261365303E1  -1.258377118224363E2  
 1.638386308068460E11   -2.539521827808425E1   1.191484939632374E2  -7.391267197451619   6.510025329301259E1  -7.402543819841810   3.072436073198317E1  -2.258377475014235E1  -1.360680052109047E2  
 1.638508557457213E11   -2.614535985136966E1   1.190126065279817E2  -7.302682371362348   4.127424806964599E1  -7.308919696880847   6.398791135574651  -2.699747019103935E1  -1.147158330456538E2  
 1.638630806845966E11   -2.676383333173715E1   1.153420120613137E2  -7.210360726415772   1.696867820059378E1  -7.226272545208820  -1.844078595931975E1  -2.496270347924761E1  -8.012428381834303E1  
 1.638753056234719E11   -2.777853679616723E1   1.127120199551083E2  -7.122877029293386  -8.127730404012887  -7.143956098042429  -4.320318281489685E1  -2.084863044294712E1  -7.822707017392159E1  
 1.638875305623472E11   -2.887137742399989E1   1.148982872131899E2  -7.120881585581810  -3.278436902079606E1  -7.120928442629993  -6.812689416195090E1  -1.839729521119774E1  -9.099292791836398E1  
 1.638997555012225E11   -2.924634182604833E1   1.179009510415982E2  -7.137751339160733  -5.763771713261350E1  -7.152517744445861  -9.328135586521076E1  -1.753381953635073E1  -1.088450391210579E2  
 1.639119804400978E11   -2.968902743594280E1   1.168359464316723E2  -7.220653259164886  -8.212247239381659E1  -7.235413526584744  -1.181660537474207E2  -1.810928853273525E1  -1.269577051942611E2  
 1.639242053789731E11   -3.107595729554410E1   1.209206433880052E2  -7.302082734241183  -1.061022797545184E2  -7.333793782628351  -1.427039562919302E2  -2.081734169077992E1  -1.419959117453715E2  
 1.639364303178484E11   -3.097149847994280E1   1.385424885668560E2  -7.242841941252411  -1.294764993568119E2  -7.261023495683592  -1.663731174123625E2  -2.479780683148265E1  -1.369492364470694E2  
 1.639486552567237E11   -2.856490211349009E1   1.433463696338150E2  -7.144998189189813  -1.539254168400196E2  -7.176757411944174   1.692529110814020E2  -2.602992576910035E1  -1.054162557258201E2  
 1.639608801955990E11   -2.666038775099241E1   1.404003725503014E2  -7.115720393433422  -1.789951446720606E2  -7.124883235405214   1.436975385158203E2  -2.255429334727134E1  -8.906084011127153E1  
 1.639731051344743E11   -2.498751388863217E1   1.342601989385003E2  -7.094608190346502   1.562888733517230E2  -7.099181901208668   1.187282644880852E2  -1.921251705841566E1  -9.525970415672840E1  
 1.639853300733496E11   -2.351665362953758E1   1.221507729808139E2  -7.149097968037416   1.314382047085577E2  -7.155413769739928   9.407839536715076E1  -1.742487567286504E1  -1.106798354723942E2  
 1.639975550122250E11   -2.276387831932142E1   1.060252323895459E2  -7.247719279983723   1.067966693265011E2  -7.270215633439135   6.906165683375532E1  -1.711207453656141E1  -1.293960855842984E2  
 1.640097799511003E11   -2.341837816229052E1   8.643417564752377E1  -7.346483460983193   8.273500749077826E1  -7.399771453510490   4.462086080168399E1  -1.846778023623408E1  -1.476330631712453E2  
 1.640220048899756E11   -2.540669948041061E1   7.212322356178184E1  -7.291277683180902   5.981903849994040E1  -7.344522006568557   2.104401837574929E1  -2.133760003142628E1  -1.563895494806133E2  
 1.640342298288509E11   -2.727628485251776E1   6.584616842202908E1  -7.181358484968764   3.512863459518736E1  -7.202692065490421  -3.146257997790240  -2.451753959755256E1  -1.484459175022269E2  
 1.640464547677262E11   -2.996385852784158E1   5.844909348991298E1  -7.111218524517335   1.038107569685702E1  -7.126094149655390  -2.781657187235366E1  -2.507099149191569E1  -1.228100725562913E2  
 1.640586797066015E11   -3.436158206712770E1   6.817827946929879E1  -7.071492999110032  -1.487400155619044E1  -7.098373692360197  -5.278874408291180E1  -2.201310781753286E1  -1.119905687517466E2  
 1.640709046454768E11   -3.407811651250533E1   1.136222881424523E2  -7.084695130279875  -3.971130116555308E1  -7.104366682208055  -7.786639612181926E1  -1.922706578207649E1  -1.199324481707063E2  
 1.640831295843521E11   -2.945374246326800E1   1.163853287626766E2  -7.162312636997394  -6.486071150621973E1  -7.190639490317320  -1.028898014632414E2  -1.791336142983490E1  -1.358917629167902E2  
 1.640953545232274E11   -2.697861266223415E1   1.017915230342773E2  -7.295350801059769  -8.894093288305992E1  -7.306246812011667  -1.271126169645304E2  -1.798786003912551E1  -1.546913671008752E2  
 1.641075794621027E11   -2.652689682875224E1   8.754831511516650E1  -7.350464107431958  -1.126389269580681E2  -7.375179957379509  -1.511500625232541E2  -1.969942474020763E1  -1.707437437306256E2  
 1.641198044009780E11   -2.612915546774759E1   7.385165253892360E1  -7.281356629919465  -1.367612776453803E2  -7.309282441213344  -1.748866366522185E2  -2.240913400293916E1  -1.785663511238589E2  
 1.641320293398533E11   -2.643723815374780E1   5.565982972727825E1  -7.228424000401432  -1.612942768351421E2  -7.270434346625670   1.610771219502142E2  -2.570225887372430E1  -1.755350236622492E2  
 1.641442542787286E11   -2.822482234934575E1   3.283280660543522E1  -7.197235413451260   1.740559682408673E2  -7.186124299566894   1.365364127117178E2  -2.719393549681742E1  -1.496785738928893E2  
 1.641564792176039E11   -3.250124931067128E1   9.578621589491087  -7.132372769016815   1.493233281600891E2  -7.145404676958474   1.117968319060358E2  -2.441655720634653E1  -1.370870809427992E2  
 1.641687041564792E11   -4.413844236970760E1  -1.778277484676852E1  -7.145971255438714   1.238538162523828E2  -7.152125624568077   8.682252083691446E1  -2.191412877052806E1  -1.454870177527062E2  
 1.641809290953545E11   -4.214975192496586E1   1.315005824055731E2  -7.214764920476202   9.907969773459459E1  -7.263145004153338   6.221056600785438E1  -2.107862018208389E1  -1.647472380160181E2  
 1.641931540342298E11   -3.638811684802689E1   1.348602537933582E2  -7.299317371457250   7.554038551899984E1  -7.321817334919640   3.852955659324667E1  -2.286204901017219E1   1.730254869904084E2  
 1.642053789731051E11   -3.210453781335484E1   1.272493310183098E2  -7.222683453437851   5.089881574357087E1  -7.238081372688778   1.467265436624190E1  -2.726122029848893E1   1.614915175538357E2  
 1.642176039119804E11   -3.010015581401571E1   1.108324803849718E2  -7.138070724795739   2.635000388068207E1  -7.168803684883791  -9.769742335690115  -3.417854006429825E1   1.799781342011516E2  
 1.642298288508557E11   -2.989955239294192E1   9.821656596448746E1  -7.087559311047892   1.385253439418063  -7.109647190416732  -3.431602735666116E1  -3.194918272614447E1  -1.152561098242257E2  
 1.642420537897311E11   -3.057410348001049E1   9.301300836360203E1  -7.054296226374595  -2.364446913440510E1  -7.075063335102345  -5.936526362963097E1  -2.588695216347122E1  -1.111495449219379E2  
 1.642542787286064E11   -3.046006165752409E1   9.302514009179026E1  -7.082421647733330  -4.893771114155101E1  -7.096635950910971  -8.438892585372751E1  -2.241260839832642E1  -1.259081205316354E2  
 1.642665036674817E11   -3.001884202688660E1   8.925855921042239E1  -7.197745030097747  -7.377667929297880E1  -7.235381147109226  -1.090854123058995E2  -2.091815252188232E1  -1.481025234084381E2  
 1.642787286063570E11   -3.075705993584868E1   8.600729166111093E1  -7.285481717569550  -9.766840747314306E1  -7.292709862946193  -1.327236986258902E2  -2.177389512275886E1  -1.725715556253138E2  
 1.642909535452323E11   -3.032805586762778E1   9.444578379508516E1  -7.221486554773100  -1.217978566429007E2  -7.228188968516731  -1.567382984821884E2  -2.532710994332166E1   1.749390887989114E2  
 1.643031784841076E11   -2.850545099443887E1   9.164358272681460E1  -7.166093326814783  -1.465360579500828E2  -7.200726257079473   1.788112417136344E2  -2.939801183300444E1  -1.761030868577606E2  
 1.643154034229829E11   -2.769709995545415E1   8.337605075911240E1  -7.158200064254957  -1.714900807150988E2  -7.169692396601730   1.542509423474093E2  -3.014363454840109E1  -1.410958914776120E2  
 1.643276283618582E11   -2.729698652582395E1   7.835201730338903E1  -7.183965611324785   1.631262025385937E2  -7.181689338349363   1.294736445876019E2  -2.604580016652685E1  -1.256211616971974E2  
 1.643398533007335E11   -2.665007238874126E1   7.483770927658483E1  -7.206134097763742   1.387550045539053E2  -7.213987363836545   1.048863161583044E2  -2.235918579935167E1  -1.328109607818797E2  
 1.643520782396088E11   -2.517558305726855E1   6.617369061135341E1  -7.315964153556608   1.136716571494391E2  -7.328352592541108   8.022431472957049E1  -2.024528335920510E1  -1.514057753193407E2  
 1.643643031784841E11   -2.419249527446881E1   4.817878581152509E1  -7.446631595220848   8.942484164364180E1  -7.460368565002957   5.637486762297752E1  -1.987683101519911E1  -1.741915978645496E2  
 1.643765281173594E11   -2.457008378322870E1   2.888600977785533E1  -7.406732712815469   6.645055093433145E1  -7.440207160002011   3.312963002373247E1  -2.113689428893665E1   1.681893836744067E2  
 1.643887530562347E11   -2.538961502082805E1   1.052376752886251E1  -7.325111379260229   4.248944629642961E1  -7.338625975064174   9.034788016355071  -2.285188232416535E1   1.558884484607924E2  
 1.644009779951100E11   -2.636378405335750E1  -1.121263711574035E1  -7.252994665319140   1.769890135018793E1  -7.288409111360933  -1.532559764884456E1  -2.547464333044869E1   1.466837187614707E2  
 1.644132029339853E11   -2.780065659978321E1  -3.815709621376274E1  -7.174715381045104  -6.491611182103354  -7.206325869916327  -4.002424173203474E1  -2.905039247451317E1   1.531755569986094E2  
 1.644254278728606E11   -2.989859645023855E1  -7.727776691123383E1  -7.114892632056888  -3.157504931356411E1  -7.147707853179187  -6.462487090087726E1  -2.950674543896478E1  -1.783764524857565E2  
 1.644376528117359E11   -3.169023927339158E1  -1.280421915880645E2  -7.135914402097413  -5.675225765409287E1  -7.142641821327265  -9.000782715415677E1  -2.541651960409218E1  -1.731265797288159E2  
 1.644498777506112E11   -3.166962009037944E1  -1.782321214558286E2  -7.220205336565139  -8.149483381282974E1  -7.222720730081292  -1.146298156085250E2  -2.262668697733611E1   1.676618906952091E2  
 1.644621026894865E11   -3.106789935115668E1   1.522056291258486E2  -7.278788070688810  -1.050987697633349E2  -7.294853609727513  -1.386833747878988E2  -2.231599875480534E1   1.397502513712015E2  
 1.644743276283619E11   -2.916959857215474E1   1.288093650471117E2  -7.213052349125950  -1.291969853538993E2  -7.230331634042109  -1.625244649602101E2  -2.391204777494806E1   1.147422542564260E2  
 1.644865525672372E11   -2.855792291282860E1   1.046602803827745E2  -7.141400241015251  -1.538772239436846E2  -7.159504528708336   1.725811610134106E2  -2.632668412227337E1   9.219859326595785E1  
 1.644987775061125E11   -2.939505353812798E1   8.292458295958357E1  -7.139020918105307  -1.782094897876522E2  -7.160505168051364   1.475955303657026E2  -2.968430842431972E1   6.791683462014635E1  
 1.645110024449878E11   -3.158677057500399E1   6.735234925343198E1  -7.138032645366437   1.569433577884822E2  -7.135287094570733   1.227588007529059E2  -3.494193841460115E1   3.036521613945822E1  
 1.645232273838631E11   -3.578070331454072E1   6.442218740775897E1  -7.150447574005939   1.319694943971485E2  -7.154675892577045   9.819474168205525E1  -4.281985632920657E1  -7.418028450746775E1  
 1.645354523227384E11   -4.017049779527564E1   8.773931091994913E1  -7.230722028555553   1.076482740396486E2  -7.244329176143753   7.377077740437214E1  -3.469774171890180E1   1.766891629767499E2  
 1.645476772616137E11   -3.870368613926691E1   1.457640530303048E2  -7.277361626653581   8.342179766070144E1  -7.293717662940462   4.940811012513694E1  -3.081193416888779E1   1.084948547956454E2  
 1.645599022004890E11   -3.124048451334114E1   1.557366254927783E2  -7.212453386473503   5.947244832805239E1  -7.211538339154084   2.551442108200170E1  -2.943428749441217E1   4.704024605552903E1  
 1.645721271393643E11   -2.748513337390591E1   1.446736685616249E2  -7.133410968327061   3.499214104496820E1  -7.146519856677767   4.770080334865878E-1  -2.773790318164981E1  -8.860778270443981E-1  
 1.645843520782396E11   -2.502670460893560E1   1.326686832501354E2  -7.133933487539180   1.050323812319878E1  -7.126449675488147  -2.415915177637500E1  -2.581388853810337E1  -3.520376689813465E1  
 1.645965770171149E11   -2.324558003656594E1   1.221097869428026E2  -7.153554213140116  -1.436926058520482E1  -7.138099788504724  -4.902484208852759E1  -2.388953831171963E1  -6.211771215544248E1  
 1.646088019559902E11   -2.169985933782705E1   1.109318568807795E2  -7.180442517373400  -3.884404356431843E1  -7.195357719875225  -7.372980982600052E1  -2.228336252603887E1  -8.751917078774012E1  
 1.646210268948655E11   -2.049772225076567E1   9.673349516614563E1  -7.272504653271890  -6.367618805708376E1  -7.232026040985759  -9.832514963658335E1  -2.140588772200710E1  -1.130048752967779E2  
 1.646332518337408E11   -2.006145435793601E1   8.209432415450200E1  -7.334568844195925  -8.672997286991625E1  -7.320685686150594  -1.225554508219995E2  -2.209891191034128E1  -1.369504176395043E2  
 1.646454767726162E11   -2.010179349617116E1   7.060389152202822E1  -7.237209924086359  -1.106030338735267E2  -7.222022700999751  -1.463881782125827E2  -2.375060464644810E1  -1.479748272499732E2  
 1.646577017114915E11   -2.010331168445168E1   5.980592238196242E1  -7.153447639258928  -1.349397531067733E2  -7.130919166943058  -1.706551925584620E2  -2.416125052051559E1  -1.526871351520733E2  
 1.646699266503668E11   -2.051403060579359E1   4.784197718058134E1  -7.085382909463998  -1.598133108104961E2  -7.065866268307909   1.647452070466432E2  -2.407166215625286E1  -1.587721537090747E2  
 1.646821515892421E11   -2.155052477438631E1   3.646909441350218E1  -7.053165420262923   1.752653398768888E2  -7.031893706583680   1.397121523410764E2  -2.385422221091581E1  -1.663849141392576E2  
 1.646943765281174E11   -2.325206902050362E1   2.971424481171718E1  -7.043298916116884   1.506948362500420E2  -7.045969832152966   1.143323544573711E2  -2.360319900199756E1  -1.731499415648503E2  
 1.647066014669927E11   -2.515227077631337E1   2.982522169364274E1  -7.094271012413055   1.255550163404069E2  -7.065788186462842   8.962467748257984E1  -2.279603366460272E1   1.764986630444827E2  
 1.647188264058680E11   -2.651262431546397E1   3.842496204108179E1  -7.166917724221524   1.015921904596887E2  -7.153295826503259   6.530565436680583E1  -2.216759947170070E1   1.579635139282290E2  
 1.647310513447433E11   -2.679121219052420E1   5.089335598706812E1  -7.155116866418519   7.757915792421606E1  -7.129986934806842   4.096758634781612E1  -2.286195198720539E1   1.349238048000593E2  
 1.647432762836186E11   -2.508267528833606E1   5.985262020640617E1  -7.124741309271121   5.294279530848821E1  -7.116114139622726   1.611654359040618E1  -2.444260736783869E1   1.132088127969002E2  
 1.647555012224939E11   -2.312355287033319E1   5.836879632448544E1  -7.129383561763005   2.855147823145367E1  -7.113168533094735  -8.628622131669797  -2.677766478889719E1   8.751830697739115E1  
 1.647677261613692E11   -2.179890305138392E1   5.165768668203471E1  -7.125406705451712   3.383131926832601  -7.146622915676332  -3.295605304892941E1  -3.004403907243538E1   5.127780478119315E1  
 1.647799511002445E11   -2.102497437969448E1   4.451085925433605E1  -7.155902984784131  -2.096353405308977E1  -7.166425800714319  -5.810416961535834E1  -3.254092896238335E1  -9.513868183939424  
 1.647921760391198E11   -2.047421558391387E1   3.681924293335518E1  -7.234353955464287  -4.535206714265855E1  -7.230267031288351  -8.256476607001432E1  -3.029809374242872E1  -7.827842891982837E1  
 1.648044009779951E11   -2.024978202104997E1   2.772753010006647E1  -7.339135330192167  -6.944800507620538E1  -7.317929454294728  -1.062812801051360E2  -2.786581395814752E1  -1.265396809677918E2  
 1.648166259168704E11   -2.053378350052651E1   2.009582324129643E1  -7.240074821163514  -9.290472631355034E1  -7.244789788902823  -1.298990749575595E2  -2.789613982223060E1  -1.528909472254358E2  
 1.648288508557457E11   -2.081436067908331E1   1.645659668757990E1  -7.122328230419477  -1.171966531894576E2  -7.130941469015147  -1.544649227638280E2  -2.741144419622214E1  -1.604471266867126E2  
 1.648410757946210E11   -2.062973759592124E1   1.196026186526165E1  -7.061707261878348  -1.420643611827846E2  -7.073092294066513  -1.796385929752323E2  -2.580661276798766E1  -1.719657148293819E2  
 1.648533007334963E11   -2.039353920648781E1   4.667187796569358  -7.035958672739233  -1.671730194536326E2  -7.074368736132190   1.556853595678157E2  -2.496308812913692E1   1.706226319009860E2  
 1.648655256723716E11   -2.065959359759017E1  -3.583039231757471  -7.066194626173552   1.679895135026217E2  -7.085970296430252   1.307502469979897E2  -2.516192631059876E1   1.525107082273818E2  
 1.648777506112470E11   -2.131596094817321E1  -1.141679856156031E1  -7.115147393122366   1.430036921477824E2  -7.136952044968010   1.059780412588917E2  -2.644272526961794E1   1.389756400269908E2  
 1.648899755501223E11   -2.214630515391717E1  -1.875415110873083E1  -7.226075949910191   1.188297009195543E2  -7.253799287263660   8.146349914851029E1  -2.723728074408381E1   1.339546891309275E2  
 1.649022004889976E11   -2.349694304682695E1  -2.676124682802770E1  -7.230070708580517   9.478611628770666E1  -7.254046583753739   5.806903556784754E1  -2.791204693897510E1   1.191781017202999E2  
 1.649144254278729E11   -2.593816328196257E1  -2.842896164139498E1  -7.131280731927117   7.049320728769769E1  -7.170385483190485   3.389311859157731E1  -3.122654776496286E1   1.109240096159692E2  
 1.649266503667482E11   -2.828816729640889E1  -1.323051039597994E1  -7.045913051497158   4.595469086672863E1  -7.071279045786017   9.451240016710232  -3.402120620860730E1   1.404791132303956E2  
 1.649388753056235E11   -2.711421221520457E1   6.857969284057449  -6.959855885601908   2.101731136235763E1  -7.025769119221322  -1.544496509287936E1  -2.966195802008407E1   1.548168608125761E2  
 1.649511002444988E11   -2.469186613918664E1   1.012443248154272E1  -6.986428760897220  -4.291287294054119  -6.985252253620200  -3.988179960270104E1  -2.664015987543891E1   1.421914214880721E2  
 1.649633251833741E11   -2.281752041659252E1   3.503731634289489  -7.020938600533834  -2.937195743362080E1  -7.047787197202813  -6.534070189230859E1  -2.548338644565192E1   1.240995776496026E2  
 1.649755501222494E11   -2.176233131084262E1  -7.309452679852527  -7.129992295391162  -5.412969576789493E1  -7.154287282623576  -8.977404538645445E1  -2.538856207822938E1   1.094378084125662E2  
 1.649877750611247E11   -2.143326130555139E1  -2.038753023556217E1  -7.214519335347219  -7.790458188134535E1  -7.247485128010287  -1.137741068208671E2  -2.477901233154000E1   9.156047045353536E1  
 1.650000000000000E11   -2.205372115648844E1  -3.224958472603892E1  -7.178446510635061  -1.020492682810687E2  -7.209588881462699  -1.377853623318551E2  -2.539055872079272E1   6.455601119114337E1  
 1.650122249388753E11   -2.313093902156180E1  -4.179034499129504E1  -7.130002701909613  -1.263522782743334E2  -7.176543226334397  -1.621408337364118E2  -2.873031764555082E1   3.079302451684266E1  
 1.650244498777506E11   -2.457403548880776E1  -4.754553888971508E1  -7.075642948877164  -1.511114817123071E2  -7.136723898250606   1.736027479480520E2  -3.660339649271181E1  -2.353495255866476E1  
 1.650366748166259E11   -2.600985961020555E1  -4.929189423809562E1  -7.061648424472292  -1.757421571043719E2  -7.098889853973976   1.492004450142289E2  -3.536562030704768E1  -1.520044945075106E2  
 1.650488997555012E11   -2.716763394070720E1  -4.957160872209018E1  -7.036971752390277   1.595043435270767E2  -7.076026068326400   1.243549188186399E2  -2.864015200435366E1   1.636513162085239E2  
 1.650611246943765E11   -2.768680635073117E1  -4.784525751686801E1  -7.086757157539264   1.343907100268660E2  -7.119713052150726   9.947234080159355E1  -2.561233496655921E1   1.379547874241682E2  
 1.650733496332518E11   -2.802910317254819E1  -4.969286918244168E1  -7.162254875624846   1.097804455408479E2  -7.183273617048616   7.545563131298169E1  -2.344132992745580E1   1.171877044756977E2  
 1.650855745721271E11   -2.901084314679995E1  -6.268860565651323E1  -7.141379140648787   8.593137493615984E1  -7.154142939201371   5.114683213830754E1  -2.245551819427797E1   9.252366771645315E1  
 1.650977995110024E11   -3.195118646617011E1  -7.625529624083562E1  -7.080741690240512   6.142711464721738E1  -7.086634788799012   2.690322935166917E1  -2.324111800169167E1   7.007687876475639E1  
 1.651100244498778E11   -4.024890886814754E1  -9.152617144748325E1  -7.044063845479096   3.636903287518860E1  -7.062694805967341   2.430702284809683  -2.534691898134661E1   5.637415784715355E1  
 1.651222493887531E11   -4.271023420231460E1   6.479796170910429E1  -7.022148003734626   1.182587645667119E1  -7.048072960508257  -2.196003099096424E1  -2.748768613666817E1   5.830037504346887E1  
 1.651344743276284E11   -3.176746735823518E1   5.248394536255618E1  -7.049936223017287  -1.318641374437630E1  -7.042498483449373  -4.708900613504052E1  -2.703188255930748E1   6.727367025549214E1  
 1.651466992665037E11   -2.757108509044507E1   3.608317576363004E1  -7.112757983211997  -3.771705677660481E1  -7.124229572009021  -7.156095238738240E1  -2.573858699920133E1   6.592064874734285E1  
 1.651589242053790E11   -2.568310732798556E1   1.833886192459576E1  -7.191216347195376  -6.172542410376113E1  -7.205468613348634  -9.604720185644824E1  -2.394965114796971E1   6.229080724417116E1  
 1.651711491442543E11   -2.517517122607172E1   3.859887939382585  -7.178779546622716  -8.570597078651878E1  -7.165158547214881  -1.201678969582098E2  -2.230516031467198E1   4.798217625542731E1  
 1.651833740831296E11   -2.539204872120971E1  -7.918031474854046  -7.118278273051511  -1.101859489755310E2  -7.132628848652069  -1.445554161506879E2  -2.188634886844732E1   2.902953618832643E1  
 1.651955990220049E11   -2.639509753144436E1  -1.657825776291539E1  -7.085253741578960  -1.344056551379598E2  -7.079941715520081  -1.688692351761565E2  -2.295568791811058E1   9.980495120505239  
 1.652078239608802E11   -2.804081401463720E1  -1.794472431327703E1  -7.019806856215608  -1.591524043045068E2  -7.038748494436953   1.662105058089440E2  -2.547723306085501E1  -3.303947220577533  
 1.652200488997555E11   -2.925907709081281E1  -5.152557161797116  -7.003813313718086   1.756578618305061E2  -7.050867902974554   1.412149415318204E2  -2.902870311811728E1   3.889153559130188  
 1.652322738386308E11   -2.764572375539865E1   7.627302571101850  -7.072146431233649   1.507377045812290E2  -7.093461764274715   1.166383834905372E2  -2.831370275339055E1   2.837872043838567E1  
 1.652444987775061E11   -2.529289665109043E1   6.671083089910812  -7.164121831429853   1.261535837372249E2  -7.165087973240414   9.179054803560653E1  -2.475065413331671E1   3.151402543936992E1  
 1.652567237163814E11   -2.394080334239218E1  -3.135304201499763  -7.192010513508733   1.022736627121422E2  -7.216810963835513   6.764161463643090E1  -2.170792329211178E1   1.750809798472897E1  
 1.652689486552567E11   -2.335151411514147E1  -1.347100587924112E1  -7.185781183556970   7.809495963473320E1  -7.216770805380831   4.334900657295044E1  -2.009066940654250E1  -6.187783362949352  
 1.652811735941320E11   -2.358362471367507E1  -2.435323456639551E1  -7.174326009048535   5.371726414468450E1  -7.198237508244336   1.913211396316707E1  -1.969365951532735E1  -3.401686716750438E1  
 1.652933985330073E11   -2.452847826657718E1  -3.392338358107138E1  -7.155678967822451   2.878032342529808E1  -7.187133103068009  -5.186045040336949  -2.047016213636518E1  -6.492713968908311E1  
 1.653056234718826E11   -2.689220042669581E1  -3.760613085812649E1  -7.149851894121202   4.198702736743822  -7.182349643096096  -2.928232399848373E1  -2.228435361812276E1  -1.000237859266331E2  
 1.653178484107579E11   -2.910422271833698E1  -2.372950649782989E1  -7.161447653203021  -2.019430939512255E1  -7.183314307924492  -5.403217303290278E1  -2.496179045463805E1  -1.450053053013535E2  
 1.653300733496332E11   -2.794523083386651E1  -6.425261398700094  -7.173621654084546  -4.450472025582857E1  -7.208264061471991  -7.815123872136800E1  -2.651467780312261E1   1.522579639646552E2  
 1.653422982885085E11   -2.614044015261708E1  -3.235524407220375  -7.145325081841119  -6.911662419994670E1  -7.165027073732350  -1.023577642677085E2  -2.525136640248448E1   9.175936857430612E1  
 1.653545232273839E11   -2.468264492577868E1  -5.157838776258774  -7.091202379050306  -9.310483824531379E1  -7.124620347831721  -1.270547605041175E2  -2.357718845442239E1   4.508832164291927E1  
 1.653667481662592E11   -2.365540966948819E1  -1.037676058031676E1  -7.085976145540842  -1.179978677240620E2  -7.110986686583329  -1.514858289136833E2  -2.282934578629655E1   6.733393521002692  
 1.653789731051345E11   -2.335877519572293E1  -1.600662622768493E1  -7.074855692690384  -1.424992908068556E2  -7.097431209347913  -1.760954699791251E2  -2.353647593129745E1  -2.942982775191943E1  
 1.653911980440098E11   -2.356039910945459E1  -1.860378939957217E1  -7.070309448499391  -1.672460515562353E2  -7.109051236969338   1.592781518645295E2  -2.594867647344181E1  -6.804075527627229E1  
 1.654034229828851E11   -2.334213480696305E1  -1.673431071946985E1  -7.081834579186256   1.681906977395643E2  -7.111054907649518   1.344241043474265E2  -3.055042836471871E1  -1.215863612307786E2  
 1.654156479217604E11   -2.212081952420123E1  -1.622115080015912E1  -7.122171126219373   1.437591938388763E2  -7.173472126966439   1.102391469194942E2  -3.128257419595942E1   1.436221392906595E2  
 1.654278728606357E11   -2.108859480401644E1  -2.175731526100198E1  -7.124668659308818   1.194124721013574E2  -7.173119657274413   8.637245261097667E1  -2.597705101080472E1   8.158918468951478E1  
 1.654400977995110E11   -2.040556025014939E1  -2.961399153919717E1  -7.115451353965357   9.521947897033611E1  -7.133612196391203   6.158210250778798E1  -2.286136527568775E1   3.934825949087203E1  
 1.654523227383863E11   -2.001062727389209E1  -3.842545820328800E1  -7.085288249297204   7.082262324168049E1  -7.146014650929980   3.675790723754432E1  -2.161264559572900E1   3.928958084230136  
 1.654645476772616E11   -2.018185235544900E1  -4.880880697623983E1  -7.079799945601003   4.585957989089918E1  -7.126471928343822   1.234775990682319E1  -2.202584035854301E1  -3.099604714960476E1  
 1.654767726161369E11   -2.122086998554090E1  -5.849430911507115E1  -7.067817337187154   2.181714313113824E1  -7.089283184383547  -1.162820106344813E1  -2.383707914839987E1  -6.979245231373238E1  
 1.654889975550122E11   -2.299895156889280E1  -6.304841147268342E1  -7.035364599722604  -2.591791269892863  -7.090602418155532  -3.680045210826440E1  -2.718211905972392E1  -1.212929763676353E2  
 1.655012224938875E11   -2.472134944021116E1  -5.319904541404077E1  -7.031735807861312  -2.743268574072015E1  -7.061202443495416  -6.105474506921608E1  -2.853946305676351E1   1.582907823347127E2  
 1.655134474327628E11   -2.389118369962483E1  -4.128141736065711E1  -7.024344103339073  -5.196176178246399E1  -7.045561894085851  -8.572316752489827E1  -2.440171528917408E1   9.182465801746996E1  
 1.655256723716381E11   -2.225329476551144E1  -3.872230999320243E1  -7.008029062692057  -7.658467279753907E1  -7.045226714010998  -1.105121899439126E2  -2.138481090444033E1   4.914504081168672E1  
 1.655378973105134E11   -2.081300056721413E1  -4.436198802936841E1  -7.039306620876383  -1.011283693198204E2  -7.066220795328962  -1.354968581210297E2  -1.980954613840267E1   1.310194673021140E1  
 1.655501222493887E11   -1.979362143151534E1  -5.572378623279943E1  -7.065640247076511  -1.258578070201937E2  -7.119987648034397  -1.599704432853458E2  -1.955366802166912E1  -2.058708456043671E1  
 1.655623471882640E11   -1.986852123232977E1  -6.838536484446125E1  -7.093473605074716  -1.501682028319137E2  -7.123712628725075   1.755050059988006E2  -2.047304106919821E1  -5.588381450540344E1  
 1.655745721271393E11   -2.075723533573029E1  -8.042625475889015E1  -7.085882053598128  -1.747470082643879E2  -7.101023973346598   1.513076697259020E2  -2.271529875555196E1  -9.656395718707125E1  
 1.655867970660147E11   -2.271679670097735E1  -8.698445178316921E1  -7.086666838692909   1.609134489834093E2  -7.086763350895247   1.268298379708996E2  -2.565948410673679E1  -1.506023922444379E2  
 1.655990220048900E11   -2.490118406733364E1  -8.376409392876113E1  -7.039062824193642   1.367624333198738E2  -7.068843571405584   1.021991685271572E2  -2.615192852358190E1   1.358654353360428E2  
 1.656112469437653E11   -2.616894731715537E1  -6.988715347264399E1  -7.002472506282378   1.124648333608302E2  -7.017271855195876   7.743245178695837E1  -2.336392855183419E1   7.822242455884917E1  
 1.656234718826406E11   -2.479212807753401E1  -5.698483589814433E1  -7.007710659985030   8.717848429968795E1  -7.026059529759810   5.238766149890613E1  -2.141312018282424E1   3.607523340408609E1  
 1.656356968215159E11   -2.265031121684239E1  -5.770179707880665E1  -7.036558251870450   6.261043142692181E1  -7.058464079645323   2.716395131611244E1  -2.097052505973834E1  -5.385924653468033E-1  
 1.656479217603912E11   -2.145901018722631E1  -6.663859589003657E1  -7.095570610595690   3.763371695828596E1  -7.116171077007636   2.504364319888037  -2.214605908426282E1  -3.676952040928624E1  
 1.656601466992665E11   -2.139321752146388E1  -7.628340489704300E1  -7.168477287763653   1.334448146531710E1  -7.181024758469030  -2.193919734221881E1  -2.533195854676920E1  -7.921193680436706E1  
 1.656723716381418E11   -2.204896995382693E1  -8.331336294186794E1  -7.227647332207631  -1.106972716203199E1  -7.242913462977220  -4.692253090988438E1  -2.988307201647458E1  -1.540446375336844E2  
 1.656845965770171E11   -2.278690478214313E1  -8.670349195265619E1  -7.269030896377396  -3.509404329770355E1  -7.295417026980595  -7.086023631319711E1  -2.581441902203345E1   1.175673026043490E2  
 1.656968215158924E11   -2.359585496389547E1  -8.623967511730950E1  -7.304623310423964  -5.940336998742545E1  -7.316539236373140  -9.518303764214576E1  -2.120608317708429E1   7.201242250890765E1  
 1.657090464547677E11   -2.389322272947111E1  -8.411080833671988E1  -7.339161088226831  -8.375162329845992E1  -7.338833220348694  -1.193501133928397E2  -1.867394933050915E1   3.814120087657898E1  
 1.657212713936430E11   -2.327792707218858E1  -8.126556082269393E1  -7.361429441397809  -1.077425125649229E2  -7.372385453934013  -1.434994674916998E2  -1.749360304918272E1   8.169487986329612  
 1.657334963325183E11   -2.237765410522511E1  -8.445085474578802E1  -7.354000200567579  -1.313733867803384E2  -7.391849386041703  -1.679756842362542E2  -1.749000230074384E1  -2.249332138745350E1  
 1.657457212713937E11   -2.202826423324100E1  -9.303265923319459E1  -7.339779459992246  -1.552173149328764E2  -7.372071327904983   1.679134091015798E2  -1.872918622048750E1  -5.444828433855860E1  
 1.657579462102690E11   -2.268280567674472E1  -1.028539164874112E2  -7.269884479305021  -1.792885166185299E2  -7.305701210011323   1.436162775124730E2  -2.175234341524909E1  -9.112659693923499E1  
 1.657701711491443E11   -2.407847703090260E1  -1.070228893085808E2  -7.131220775566436   1.567662845547442E2  -7.188086771494120   1.194127641277723E2  -2.685933293500086E1  -1.443162332018402E2  
 1.657823960880196E11   -2.557587370003591E1  -1.045206318490408E2  -7.033138102616855   1.315546807414967E2  -7.085286082470890   9.468197430932868E1  -2.803076311028461E1   1.242348371557988E2  
 1.657946210268949E11   -2.626430195071246E1  -9.480865419048955E1  -6.998912555797045   1.060578910964647E2  -7.046104645996648   6.990349030211068E1  -2.342118338880993E1   6.517182015684659E1  
 1.658068459657702E11   -2.537635933619312E1  -8.706850776761357E1  -7.008620401038712   8.124295329598625E1  -7.068862951329670   4.494108894096144E1  -2.081474236964527E1   3.009876869527898E1  
 1.658190709046455E11   -2.393141943438050E1  -8.805781852599135E1  -7.070556593436887   5.647367119609160E1  -7.110393891296064   2.020815819925940E1  -2.009625565974786E1  -8.297609330064766E-1  
 1.658312958435208E11   -2.298254780816913E1  -9.424662258623276E1  -7.110982462260109   3.211703925582678E1  -7.162547899101606  -3.901816100718637  -2.128332705505114E1  -3.035419135974911E1  
 1.658435207823961E11   -2.318306266420154E1  -1.037332289641826E2  -7.097333582624267   7.944388897355828  -7.158694321821899  -2.808247266745119E1  -2.551978501470200E1  -6.058674892110555E1  
 1.658557457212714E11   -2.409241528828257E1  -1.084658163647910E2  -7.044320556013354  -1.666027238529414E1  -7.115086009187530  -5.228378770259251E1  -4.067038362818031E1  -1.182335682851027E2  
 1.658679706601467E11   -2.499106484132672E1  -1.073715434326380E2  -6.986257273952540  -4.137133561886034E1  -7.012373290364254  -7.694868583720228E1  -2.776799583868313E1   8.367030603469769E1  
 1.658801955990220E11   -2.483922659727029E1  -1.022478689834282E2  -6.972719144691452  -6.649714616225232E1  -7.010199898725667  -1.018670269196797E2  -2.147517934167101E1   5.505624819862116E1  
 1.658924205378973E11   -2.394221564737110E1  -1.015607322290669E2  -6.993348651748813  -9.135479028710763E1  -7.018547002178050  -1.265474864059006E2  -1.870304002337307E1   3.131868434233338E1  
 1.659046454767726E11   -2.287045872817073E1  -1.072069200136555E2  -7.031391408821307  -1.161954921285166E2  -7.078210570453368  -1.515264175468038E2  -1.764001553268268E1   9.355158754953395  
 1.659168704156479E11   -2.257488899655308E1  -1.196662813619164E2  -7.085036351011002  -1.410366577100544E2  -7.124603513743109  -1.753541312092763E2  -1.796909301064073E1  -1.006625000908630E1  
 1.659290953545232E11   -2.355052787743530E1  -1.344057699415793E2  -7.102131931116049  -1.653026493634623E2  -7.131046860307207   1.600705990759514E2  -1.973324140618033E1  -2.432770825265598E1  
 1.659413202933985E11   -2.618688201932456E1  -1.459721250989461E2  -7.092506070479794   1.702271444467615E2  -7.106178365100162   1.360994080851026E2  -2.296755472598329E1  -2.367490288549864E1  
 1.659535452322738E11   -3.074724087942860E1  -1.450483799038614E2  -7.006767659869963   1.455136235974932E2  -7.059731982136625   1.116760400958308E2  -2.356372470995077E1   2.727703325154816  
 1.659657701711491E11   -3.460295245804014E1  -9.500604531733293E1  -7.003192279711388   1.203873117359812E2  -7.058493073090366   8.686741831888408E1  -1.989597684888359E1   1.314703559920601E1  
 1.659779951100244E11   -2.845156428012156E1  -6.862398305408294E1  -7.065796264537706   9.536448237580747E1  -7.112908760838777   6.176522323221537E1  -1.689931023779076E1   3.977068105263024  
 1.659902200488998E11   -2.405169352746739E1  -7.709258082472368E1  -7.127670023268427   7.101667919999727E1  -7.189378423058442   3.754704613574977E1  -1.507996514321705E1  -1.202003879554210E1  
 1.660024449877751E11   -2.194244283678889E1  -9.371526815445202E1  -7.191414366684976   4.669222731066149E1  -7.232942326655331   1.356680523500765E1  -1.443250037240375E1  -3.045683996863157E1  
 1.660146699266504E11   -2.138125661355865E1  -1.121773644300075E2  -7.225023432459172   2.286066763440210E1  -7.291436816057937  -1.034924473402880E1  -1.496305779804820E1  -4.993188897384965E1  
 1.660268948655257E11   -2.225286807328724E1  -1.286640056219667E2  -7.191378528511466  -1.479145992312541  -7.239881295298757  -3.402629926949452E1  -1.704307127267679E1  -6.731363966397652E1  
 1.660391198044010E11   -2.415221085647610E1  -1.425203893618052E2  -7.023034866188497  -2.588605278923267E1  -7.082087732303510  -5.867454008295839E1  -2.100709103729182E1  -7.208490086740846E1  
 1.660513447432763E11   -2.805351419339935E1  -1.489916435911569E2  -6.984640067991281  -5.124577111853705E1  -7.039501860925725  -8.358742555235908E1  -2.422306074295636E1  -4.494205488164754E1  
 1.660635696821516E11   -3.271106237730739E1  -1.162679595938564E2  -7.005579866686238  -7.645411133722958E1  -7.056121156549129  -1.088825542015876E2  -2.086961241461439E1  -2.203920511192105E1  
 1.660757946210269E11   -2.784561329684601E1  -7.985432657762858E1  -7.107710813094287  -1.015305257149380E2  -7.163313663834101  -1.334516559647223E2  -1.745117197628773E1  -2.817207884496991E1  
 1.660880195599022E11   -2.366329936225304E1  -8.626000631902748E1  -7.217320868421957  -1.256076984607203E2  -7.306644533084165  -1.578889702498854E2  -1.564029503626760E1  -4.340373224119099E1  
 1.661002444987775E11   -2.164195391812336E1  -1.012289252220879E2  -7.316597632721211  -1.494930806229213E2  -7.361461833436323   1.782726449430627E2  -1.519529972902708E1  -6.249046467149206E1  
 1.661124694376528E11   -2.108072651474259E1  -1.152651936943883E2  -7.323273625113670  -1.728392146640604E2  -7.369910791264255   1.549455624848010E2  -1.604158454396939E1  -8.278188266855145E1  
 1.661246943765281E11   -2.106844636769747E1  -1.273313470133877E2  -7.143774348882442   1.634841926232309E2  -7.205740235862009   1.310756689568214E2  -1.864532283799099E1  -1.014716046996024E2  
 1.661369193154034E11   -2.172646960435271E1  -1.388333845141932E2  -7.007644655697682   1.381242304120493E2  -7.045431612172048   1.062331874254908E2  -2.366959495417683E1  -1.145413706486952E2  
 1.661491442542787E11   -2.316867414987309E1  -1.446196239117107E2  -6.950217756499067   1.126088409475437E2  -7.003001884759212   8.104196917102844E1  -3.407588400224206E1  -6.893539573916208E1  
 1.661613691931540E11   -2.430396633434986E1  -1.389304006886410E2  -7.011938548610441   8.738189495542643E1  -7.043557866647990   5.606224860858100E1  -2.441744070403930E1  -1.206923928747069E1  
 1.661735941320293E11   -2.338957403197590E1  -1.331597417624511E2  -7.122312650224223   6.282907235947444E1  -7.164463051661723   3.122517560304691E1  -1.918924695855526E1  -2.510351247819330E1  
 1.661858190709046E11   -2.183419734317080E1  -1.394420395310181E2  -7.246500534116921   3.849538266478027E1  -7.288987164442436   7.091839723296331  -1.692118563021859E1  -4.418247140573153E1  
 1.661980440097799E11   -2.123515433058163E1  -1.528571455003412E2  -7.320271785372245   1.517915975936711E1  -7.334835341497910  -1.629387525285892E1  -1.641662748854285E1  -6.462238706846595E1  
 1.662102689486552E11   -2.144078986752437E1  -1.666916208006597E2  -7.191997789044609  -8.281694235184006  -7.192233083538079  -4.010621229689783E1  -1.749928765043371E1  -8.122973338775697E1  
 1.662224938875306E11   -2.214059312677608E1   1.757150192327301E2  -7.023637711344141  -3.253034643834816E1  -7.031027350972967  -6.446077246201787E1  -1.943291933259143E1  -9.126964969593801E1  
 1.662347188264059E11   -2.461658619964884E1   1.541463057097534E2  -6.901720768581196  -5.809822421061990E1  -6.937552272914852  -8.945450545353579E1  -2.209351803232616E1  -9.149731002787547E1  
 1.662469437652812E11   -2.990764052231860E1   1.299940293585070E2  -6.904439286739554  -8.383369727755752E1  -6.944485845325324  -1.150842558314816E2  -2.364045793906213E1  -7.717502338512297E1  
 1.662591687041565E11   -4.925175890664153E1   3.903240639525888E1  -6.998772636512370  -1.083935049916231E2  -7.018212973494803  -1.402534852680856E2  -2.181018573068064E1  -6.284703429162416E1  
 1.662713936430318E11   -3.114866698337667E1  -8.122208343898591E1  -7.152241565964868  -1.332928693207929E2  -7.146385990488706  -1.650542476133907E2  -1.942137052132211E1  -6.874277158454852E1  
 1.662836185819071E11   -2.692307126347710E1  -1.051922600073101E2  -7.250702075966427  -1.565066717077161E2  -7.309465548502110   1.712569163016948E2  -1.866209006241296E1  -8.609770478661771E1  
 1.662958435207824E11   -2.481298637002946E1  -1.181569488456291E2  -7.171782562446344  -1.794846849981054E2  -7.187838296103937   1.475798448356156E2  -1.987304074630109E1  -1.043137710413062E2  
 1.663080684596577E11   -2.356474563338571E1  -1.338712994992362E2  -7.004181852654596   1.556763641248101E2  -6.998341279757899   1.232151368768122E2  -2.267473206790929E1  -1.178011197287787E2  
 1.663202933985330E11   -2.416696996473706E1  -1.472492303546493E2  -6.887709810142003   1.309138026171888E2  -6.926729149108367   9.817779733933337E1  -2.806751885225880E1  -1.248699729874276E2  
 1.663325183374083E11   -2.556931050190050E1  -1.510925859954209E2  -6.872000311571801   1.057104939467272E2  -6.883576370496960   7.280551517883568E1  -3.674207691047411E1  -5.277522286710286E1  
 1.663447432762836E11   -2.604856533266533E1  -1.407095002312956E2  -6.897432693033644   8.075864723661383E1  -6.936195596154913   4.687771029339196E1  -2.562203139838115E1  -2.033315639428631E1  
 1.663569682151589E11   -2.423624858910674E1  -1.376440203332349E2  -7.046426668652746   5.555718859931790E1  -7.091373262970263   2.189034996571067E1  -2.079331650909544E1  -3.542285689570653E1  
 1.663691931540342E11   -2.237654890572222E1  -1.462697916562723E2  -7.201184684262866   3.193413641861288E1  -7.244996176153192  -1.961243630416597  -1.869180364770377E1  -5.590267715213334E1  
 1.663814180929096E11   -2.166712262794484E1  -1.575563702637459E2  -7.187616747573524   8.691180886509185  -7.237205605374419  -2.589587165836132E1  -1.900224751738519E1  -7.601297631867314E1  
 1.663936430317849E11   -2.135514821365653E1  -1.700922817970150E2  -7.014756622012824  -1.485155401462763E1  -7.060502463205820  -5.007021111641349E1  -2.071362066563088E1  -8.707564374037175E1  
 1.664058679706602E11   -2.176401206520042E1   1.736071927012249E2  -6.924963112363090  -4.010497530085714E1  -6.958826052230106  -7.492455079115646E1  -2.284971107672346E1  -8.992671941275864E1  
 1.664180929095355E11   -2.361541197938934E1   1.580986394776686E2  -6.911199989493186  -6.582732518842848E1  -6.910362578443638  -1.006076895180919E2  -2.527167289739425E1  -7.800648567178592E1  
 1.664303178484108E11   -2.758805789053385E1   1.522333881862507E2  -6.955651880534177  -9.045653330196136E1  -7.000820279906956  -1.258222563493550E2  -2.405057496630893E1  -5.291717978960372E1  
 1.664425427872861E11   -3.174571507115211E1  -1.762216507701748E2  -7.086429736735292  -1.157482466623399E2  -7.137130881459753  -1.506649179163136E2  -2.050534266941808E1  -4.883423519098754E1  
 1.664547677261614E11   -2.744546290163087E1  -1.506227331568193E2  -7.276792206645320  -1.401641939053429E2  -7.319408307479245  -1.750418301500448E2  -1.789387654258191E1  -6.050445971157185E1  
 1.664669926650367E11   -2.446009236295742E1  -1.561848440175167E2  -7.371496946631498  -1.628648799663619E2  -7.406587952890786   1.620911065701355E2  -1.693485200260128E1  -7.772356635512254E1  
 1.664792176039120E11   -2.218570813111513E1  -1.663394035044217E2  -7.241250541404154   1.739503100063643E2  -7.250681664299963   1.386802301205505E2  -1.747597156062290E1  -9.309017925497436E1  
 1.664914425427873E11   -2.086550253954137E1   1.751440360373122E2  -7.068830657692945   1.494388075979600E2  -7.099275897060791   1.140121815833176E2  -1.840185122031872E1  -1.034320874766093E2  
 1.665036674816626E11   -2.076408114008582E1   1.530638275615605E2  -6.963526143103155   1.238965709129662E2  -6.976540911982439   8.905282609316048E1  -1.978731772442804E1  -1.125368648138897E2  
 1.665158924205379E11   -2.236701045754888E1   1.312309769114901E2  -6.917814264209119   9.874529266313296E1  -6.951357136538125   6.396694054213169E1  -2.205159978730836E1  -1.165921273324457E2  
 1.665281173594132E11   -2.582643069949606E1   1.115148394976993E2  -6.970920301420595   7.356892706273756E1  -7.004406275291982   3.827693866712891E1  -2.435710085036788E1  -1.068876430667898E2  
 1.665403422982885E11   -3.272474834769175E1   1.095657456442218E2  -7.118132686436120   4.829501436054214E1  -7.175965343581868   1.319616320055402E1  -2.340003157718177E1  -9.011755973359428E1  
 1.665525672371638E11   -3.584931924477276E1   1.603296477957759E2  -7.293077794240984   2.470240917813415E1  -7.353495774675589  -1.036298682788603E1  -2.135991785746885E1  -9.474651775392567E1  
 1.665647921760391E11   -3.145205086140499E1  -1.660445390638110E2  -7.252644176868918   1.626436660778716  -7.291321936068195  -3.354338502539203E1  -2.154443874054102E1  -1.071757685906061E2  
 1.665770171149144E11   -2.653863013532694E1  -1.729875274864197E2  -7.061925433447439  -2.267154004828934E1  -7.112789119522259  -5.784612590310147E1  -2.282267903431361E1  -1.137788238514230E2  
 1.665892420537897E11   -2.465458581658235E1   1.675816485332491E2  -6.953086335826894  -4.817182233650166E1  -7.008871171673767  -8.267957135905928E1  -2.443820159595424E1  -1.171018055451528E2  
 1.666014669926650E11   -2.494713982673178E1   1.478502157640504E2  -6.920419222277170  -7.314351763241021E1  -6.989759878439315  -1.079319055027557E2  -2.690216221810637E1  -1.140022015297540E2  
 1.666136919315403E11   -2.667262985042239E1   1.325035819711507E2  -6.958113817464655  -9.881474365051103E1  -7.024411631547049  -1.333729745964432E2  -2.860022688026541E1  -9.150040367257296E1  
 1.666259168704157E11   -2.965104935284889E1   1.298435848654713E2  -7.117134216583930  -1.241369756044493E2  -7.189825666107013  -1.585701115482949E2  -2.590159674635983E1  -7.123372716213980E1  
 1.666381418092910E11   -3.123779758850829E1   1.386382817307891E2  -7.360624163023783  -1.483141285396186E2  -7.432192569145833   1.777133076413716E2  -2.267104728958833E1  -8.061183593421792E1  
 1.666503667481663E11   -3.260292708607329E1   1.499492130742391E2  -7.411403488226620  -1.711140575932660E2  -7.451045793226080   1.541383267494181E2  -2.286888875585296E1  -1.009659979958579E2  
 1.666625916870416E11   -3.069822999593380E1   1.711249215413385E2  -7.243119019941182   1.652151135544042E2  -7.298171946889589   1.303381657962544E2  -2.576681381453293E1  -1.086628402998554E2  
 1.666748166259169E11   -2.831312088403938E1   1.663864050698184E2  -7.115618025896673   1.400248693005029E2  -7.207809454124104   1.057636127491152E2  -2.886808456460883E1  -9.398213928190980E1  
 1.666870415647922E11   -2.759200915742211E1   1.531842143129807E2  -7.094674598784996   1.150257737452236E2  -7.146921864352763   8.093430305567880E1  -2.918982692700373E1  -6.662670260749113E1  
 1.666992665036675E11   -2.858067062685141E1   1.442556682414363E2  -7.111051874887775   8.971903119210438E1  -7.156309733457426   5.546282553360560E1  -2.607712311873387E1  -4.580324009830530E1  
 1.667114914425428E11   -3.023887492169427E1   1.521492165906951E2  -7.239889508177654   6.427964355435927E1  -7.289595279576321   3.061423653723542E1  -2.226963947368310E1  -4.266263858794363E1  
 1.667237163814181E11   -2.875613676686048E1   1.630442493888869E2  -7.437822135826154   4.004277666793664E1  -7.468141188689827   6.305897728339743  -1.926030646047435E1  -5.343976441898249E1  
 1.667359413202934E11   -2.734764831678337E1   1.666501236877192E2  -7.466508105048765   1.722559497508721E1  -7.533826673668884  -1.633224426633501E1  -1.826897629265655E1  -6.850346275037899E1  
 1.667481662591687E11   -2.477761780008860E1   1.658171451162093E2  -7.328770931852219  -6.835333472024533  -7.385422843748700  -4.009320542960733E1  -1.794340891166402E1  -7.685153589160528E1  
 1.667603911980440E11   -2.221356871762874E1   1.529646993015867E2  -7.213195798007630  -3.197338655471548E1  -7.258091774755016  -6.513975412075308E1  -1.734905567211440E1  -8.497144975768181E1  
 1.667726161369193E11   -2.089535618429646E1   1.334692697358224E2  -7.199162344889943  -5.751863130724197E1  -7.240395305226021  -8.982598013313546E1  -1.706512921406769E1  -9.586964342805389E1  
 1.667848410757946E11   -2.087840726588626E1   1.127042348739942E2  -7.246060052123431  -8.229864303193847E1  -7.299696976568867  -1.145601817830192E2  -1.753352370683961E1  -1.073066490863511E2  
 1.667970660146699E11   -2.201919712151218E1   9.237113579611150E1  -7.330233726065258  -1.072465227436044E2  -7.362722227886757  -1.394367675871366E2  -1.864705580611325E1  -1.154680334741234E2  
 1.668092909535452E11   -2.390078702768192E1   7.792540015138415E1  -7.517486967709076  -1.316923920601953E2  -7.539654200381900  -1.641270077781194E2  -1.970659668761767E1  -1.154344459120781E2  
 1.668215158924205E11   -2.619199463477987E1   6.789087309811701E1  -7.637279136579815  -1.547137504385429E2  -7.667476858782786   1.728200327671791E2  -1.975646450209379E1  -1.194516548517855E2  
 1.668337408312958E11   -3.013420652578306E1   6.162482040263134E1  -7.488994894383795  -1.774754226923796E2  -7.522233194550072   1.497869942035110E2  -2.126131599921656E1  -1.251227825834591E2  
 1.668459657701711E11   -3.301432282790832E1   9.455854105167077E1  -7.271274657706019   1.578097558394377E2  -7.312873049065972   1.256569150837461E2  -2.272146958843745E1  -1.187801833290987E2  
 1.668581907090465E11   -2.875520145191956E1   1.116529100508658E2  -7.161513899166493   1.323970025196260E2  -7.184340781939118   1.007246240871932E2  -2.238324671164241E1  -1.093162377944531E2  
 1.668704156479218E11   -2.544243026514451E1   9.654471998108478E1  -7.111252518889725   1.070529510994476E2  -7.140279862258731   7.485468304656833E1  -2.137505469285402E1  -1.091877568620383E2  
 1.668826405867971E11   -2.454098186304251E1   7.438449696949094E1  -7.194855674795165   8.130139794259894E1  -7.191313068445776   4.962256245547020E1  -2.084691365720607E1  -1.138177152140597E2  
 1.668948655256724E11   -2.476253114719075E1   5.487800184581941E1  -7.363492932907374   5.627068126575161E1  -7.385242183271950   2.379064783388100E1  -2.096639048154936E1  -1.165632097349814E2  
 1.669070904645477E11   -2.525367273958224E1   3.570326834695457E1  -7.648298561741678   3.241864636136581E1  -7.621099969401306   5.585688974532964E-1  -2.018783259413688E1  -1.209701397727346E2  
 1.669193154034230E11   -2.619497087481028E1   1.408389214317772E1  -7.666197213488363   9.466835582156197  -7.713330478623555  -2.198158227624675E1  -2.071420242546498E1  -1.342583175725527E2  
 1.669315403422983E11   -2.835387151509232E1  -1.337912090817359E1  -7.528050477384407  -1.370892849878699E1  -7.529422522002572  -4.565955604204687E1  -2.299989980838796E1  -1.418697084323798E2  
 1.669437652811736E11   -3.279588077731123E1  -3.976252167901323E1  -7.346766452035261  -3.797846473831220E1  -7.335932240071129  -6.998237436872743E1  -2.566938518547493E1  -1.327269682024052E2  
 1.669559902200489E11   -4.277712353500375E1  -3.762696058529366E1  -7.207401948777012  -6.300035202291608E1  -7.211496978226617  -9.438838948091417E1  -2.608988168873824E1  -1.141949885418428E2  
 1.669682151589242E11   -3.959678090427413E1   2.029847202364334E1  -7.121116977037158  -8.791672218028646E1  -7.132656661989784  -1.200221920215864E2  -2.431808638973642E1  -1.056276438754730E2  
 1.669804400977995E11   -3.379359592112385E1  -7.035471034437425E-1  -7.171301787252695  -1.133530748997735E2  -7.195354364947385  -1.456258643457862E2  -2.318405692560209E1  -1.044902066826034E2  
 1.669926650366748E11   -3.106718671162557E1  -3.232766234072663E1  -7.298409524205238  -1.382619818137704E2  -7.268186006941565  -1.702967426551502E2  -2.210610603090440E1  -1.087300722815820E2  
 1.670048899755501E11   -2.885100845524504E1  -6.219412655222960E1  -7.349819706540151  -1.614192590773613E2  -7.336390852692409   1.656855822236873E2  -2.196079793733741E1  -1.150774872179134E2  
 1.670171149144254E11   -2.673020484340401E1  -9.834416294931559E1  -7.277913785717981   1.739789065728148E2  -7.272686395460057   1.415083677716606E2  -2.268246112826261E1  -1.142652078957317E2  
 1.670293398533007E11   -2.547401973464580E1  -1.361508809440612E2  -7.221006729687743   1.498746506324793E2  -7.202481850727871   1.169002943514653E2  -2.229441265768978E1  -1.055748438242266E2  
 1.670415647921760E11   -2.494696397531794E1  -1.692583044372948E2  -7.227612058153532   1.242588053087660E2  -7.186799581313607   9.227701024271370E1  -2.033435088770756E1  -1.051479424686213E2  
 1.670537897310513E11   -2.559536538442744E1   1.558853190315357E2  -7.226147635113944   9.972476511946228E1  -7.191063550384746   6.682002671866086E1  -1.885461661959983E1  -1.138662780208095E2  
 1.670660146699266E11   -2.773215041077677E1   1.230610579074098E2  -7.280571925277259   7.454192874804654E1  -7.265671355038355   4.190796696190608E1  -1.823574465471033E1  -1.249326937164695E2  
 1.670782396088019E11   -3.108245180010622E1   8.838181348675288E1  -7.452809703071653   5.058953088386210E1  -7.412766703952404   1.779664902117934E1  -1.829519647040543E1  -1.350615611805200E2  
 1.670904645476773E11   -3.579133203034510E1   3.345539739602246E1  -7.542882893074504   2.706295505149513E1  -7.512360892778187  -5.835664682071206  -1.858804523669983E1  -1.467465821935758E2  
 1.671026894865526E11   -3.333122134426520E1  -5.908945416773219E1  -7.437695763408419   3.752989821813277  -7.438820715659041  -2.907195990053506E1  -1.998983111610058E1  -1.584518778600811E2  
 1.671149144254279E11   -2.793812622394085E1  -1.106247696463796E2  -7.291106728553955  -2.043735907018266E1  -7.255268121085296  -5.350170358193585E1  -2.225733268161909E1  -1.613256259506871E2  
 1.671271393643032E11   -2.445219294689207E1  -1.468672173963101E2  -7.174392747014028  -4.606603671283537E1  -7.138464423239608  -7.820606078406149E1  -2.392992877587380E1  -1.515304350817990E2  
 1.671393643031785E11   -2.284087963021657E1  -1.743822806087752E2  -7.117927746217514  -7.094843715437017E1  -7.085440895004324  -1.036032973696213E2  -2.337948090361649E1  -1.411097064086775E2  
 1.671515892420538E11   -2.238676907687474E1   1.612858764502396E2  -7.134721805994886  -9.618538573303755E1  -7.098148726489406  -1.291984420264571E2  -2.205304498100949E1  -1.420064469206241E2  
 1.671638141809291E11   -2.230319970892756E1   1.415799480408897E2  -7.320112969788472  -1.214613813818352E2  -7.269386098443084  -1.546320806930011E2  -2.134695109998181E1  -1.470963408098715E2  
 1.671760391198044E11   -2.263083075713549E1   1.216491287201087E2  -7.453089491309808  -1.453186261263193E2  -7.390835132046939  -1.782812698005637E2  -2.069117227764709E1  -1.590155918069391E2  
 1.671882640586797E11   -2.432679870490223E1   1.038252644357317E2  -7.409111341833738  -1.686717561550233E2  -7.386224445302373   1.581657490277266E2  -2.174105448358236E1  -1.777868828760402E2  
 1.672004889975550E11   -2.700338712482328E1   9.641081495400017E1  -7.279924644657069   1.671288912865854E2  -7.252673080710733   1.333467432576952E2  -2.564444410372585E1   1.676342479112204E2  
 1.672127139364303E11   -2.844275189434035E1   1.041171811534515E2  -7.184459286984108   1.421385038914727E2  -7.153921072043618   1.087470716261363E2  -3.364291214030450E1  -1.722821909498446E2  
 1.672249388753056E11   -2.820300792262574E1   1.073574505602361E2  -7.178475422433156   1.168807908041769E2  -7.161088043971978   8.293057511657865E1  -2.865394230412932E1  -1.110503565009182E2  
 1.672371638141809E11   -2.740309165536710E1   1.014820886925511E2  -7.257013016655209   9.148413667761989E1  -7.205686028581124   5.774544917018577E1  -2.357670580869853E1  -1.191517497602717E2  
 1.672493887530562E11   -2.805204806508664E1   9.157800723192365E1  -7.412706618463067   6.636571746116105E1  -7.368299425354410   3.282144529866241E1  -2.145772174430878E1  -1.357197157610430E2  
 1.672616136919316E11   -2.867128522150133E1   8.415787646335993E1  -7.645825386278858   4.223501836940170E1  -7.622492571553900   8.648641850248701  -2.079538012587844E1  -1.529720744204169E2  
 1.672738386308069E11   -3.002283574431924E1   7.193411978966168E1  -7.727617683440077   1.950541757059402E1  -7.694315095421168  -1.431477448104269E1  -2.128332911965111E1  -1.715139986097258E2  
 1.672860635696822E11   -3.578597641425861E1   5.696979764689302E1  -7.635656840744424  -3.666101179230802  -7.611132666019783  -3.777461467808801E1  -2.360925037592670E1   1.707472998156301E2  
 1.672982885085575E11   -4.180834949202883E1   1.601133173330196E2  -7.496200748136209  -2.770677316805126E1  -7.463124317920880  -6.193338554901352E1  -2.839501567204946E1   1.629006615536284E2  
 1.673105134474328E11   -3.023599838922165E1   1.587700235909728E2  -7.349961856262393  -5.270783004309400E1  -7.339480298847255  -8.632636366786382E1  -3.324554452928597E1  -1.573414952370864E2  
 1.673227383863081E11   -2.650391296558210E1   1.419782409166073E2  -7.300527773776682  -7.775810879889167E1  -7.248163630007862  -1.116418273653807E2  -2.841525195479633E1  -1.263382476242319E2  
 1.673349633251834E11   -2.474002484909670E1   1.245854019546200E2  -7.347329290241810  -1.033810488550111E2  -7.326291420284718  -1.368761526697665E2  -2.479407468693335E1  -1.361501917501731E2  
 1.673471882640587E11   -2.426284232250223E1   1.061739140588744E2  -7.504699247387158  -1.279198764769900E2  -7.468739264872759  -1.613581719489366E2  -2.333539756604854E1  -1.516090829021606E2  
 1.673594132029340E11   -2.472320556029530E1   8.538020680227871E1  -7.551437193521449  -1.513942525802581E2  -7.507650355104100   1.749211740395618E2  -2.347781045264519E1  -1.711203999095137E2  
 1.673716381418093E11   -2.763383528061735E1   7.243754821797189E1  -7.480736559474909  -1.756090068273384E2  -7.482121174250428   1.506220986716238E2  -2.622927733021725E1   1.690118748697210E2  
 1.673838630806846E11   -3.337649698060454E1   8.396820074969071E1  -7.396123218843694   1.600824683579810E2  -7.367196237086967   1.265154197112475E2  -3.333523459600634E1   1.648289904840859E2  
 1.673960880195599E11   -3.088929761596925E1   1.313558474160712E2  -7.321509246437267   1.351571981301785E2  -7.291339379157532   1.013910544387663E2  -3.422035833255105E1  -1.016935874872346E2  
 1.674083129584352E11   -2.558670486414098E1   1.291624643029047E2  -7.286910840241828   1.102594722645955E2  -7.277644200253534   7.602817352859204E1  -2.563453696526399E1  -1.068794923760011E2  
 1.674205378973105E11   -2.300284353170276E1   1.150514442588358E2  -7.415360703622202   8.449690691246410E1  -7.406618811533299   5.094473505286992E1  -2.217295207127250E1  -1.263761572791845E2  
 1.674327628361858E11   -2.136847973943402E1   9.823279206275362E1  -7.580632557884589   5.996529945176263E1  -7.581352737002183   2.638165093053343E1  -2.072437316798076E1  -1.485907007590996E2  
 1.674449877750611E11   -2.084749082256684E1   7.934851188566258E1  -7.718178529287062   3.644160166672192E1  -7.688393814768658   2.383918245246790  -2.074056446424677E1  -1.723152543767527E2  
 1.674572127139364E11   -2.179160702679086E1   5.788973091813418E1  -7.683948272341653   1.306889890422626E1  -7.689224685091775  -2.103995365582510E1  -2.244174926910040E1   1.648176651222410E2  
 1.674694376528117E11   -2.435064390679346E1   3.871533572600837E1  -7.597381166525069  -1.056821444400846E1  -7.597932222409082  -4.487111784187192E1  -2.700129141018998E1   1.444782215202196E2  
 1.674816625916870E11   -3.053908664465609E1   3.154701600121128E1  -7.474217334439659  -3.495219478647739E1  -7.494393087832718  -6.965186254857451E1  -4.061970972418365E1   1.648054497142491E2  
 1.674938875305624E11   -3.621143998331065E1   1.059086124157887E2  -7.398660951141862  -6.056233330196022E1  -7.416305439292947  -9.471810832495805E1  -2.854141699387973E1  -1.112014386985703E2  
 1.675061124694377E11   -2.713760194388245E1   1.242398279793379E2  -7.486881335395861  -8.614692623384855E1  -7.491659769518188  -1.202406709495221E2  -2.266066482942646E1  -1.301265077689593E2  
 1.675183374083130E11   -2.255137318004878E1   1.142237627413246E2  -7.690127568915470  -1.110574450035019E2  -7.682138839597045  -1.449453526767627E2  -2.013787462480695E1  -1.547934575157606E2  
 1.675305623471883E11   -1.987543335054494E1   9.624044848458462E1  -7.856700041902773  -1.350801545585076E2  -7.871951792218794  -1.690629807494607E2  -1.914737272639463E1   1.789710761058150E2  
 1.675427872860636E11   -1.875811079774427E1   7.683501416632365E1  -7.955716338818355  -1.578435969507051E2  -7.979742477460926   1.677191020631089E2  -1.938176930684574E1   1.509526710300744E2  
 1.675550122249389E11   -1.873458675499421E1   5.885931371306138E1  -7.953238881282959   1.789481609783397E2  -7.958143962525599   1.446375339020081E2  -2.073563034254221E1   1.210134368486749E2  
 1.675672371638142E11   -1.959697279231197E1   4.451397218897849E1  -7.815509635367593   1.553837996748066E2  -7.807394543942086   1.213085673575205E2  -2.305142783782433E1   8.403139415032705E1  
 1.675794621026895E11   -2.092406196206038E1   3.351298195085902E1  -7.659461760366895   1.313543321116891E2  -7.647242214234126   9.739697467011685E1  -2.616635731578861E1   3.115433653436093E1  
 1.675916870415648E11   -2.315047341414936E1   3.106610797449885E1  -7.522245066135444   1.065901255449215E2  -7.517374198490523   7.243835148106464E1  -2.592853862011501E1  -3.776956815066154E1  
 1.676039119804401E11   -2.453455133591898E1   3.972994372073612E1  -7.481228050165178   8.126084856929921E1  -7.492831953680454   4.755105520374203E1  -2.313394036675458E1  -9.422317473753111E1  
 1.676161369193154E11   -2.362383750020580E1   4.957787960081074E1  -7.463504831485341   5.673467198810285E1  -7.495582497541011   2.318957072249417E1  -2.126149349718634E1  -1.363017017474875E2  
 1.676283618581907E11   -2.175919212190542E1   4.736126601697531E1  -7.471449335378130   3.234951292547966E1  -7.492879254102848  -1.734895696871749  -2.103606783262048E1  -1.733147404136461E2  
 1.676405867970660E11   -2.089431543153133E1   3.772252039756754E1  -7.506863280395598   7.240505081080924  -7.507820673136589  -2.583430621769905E1  -2.235567669010257E1   1.508692859386150E2  
 1.676528117359413E11   -2.087117790259305E1   2.797524176847929E1  -7.481122032045013  -1.674071501908038E1  -7.471922446202227  -5.014932504340997E1  -2.552082072319210E1   1.075392147304932E2  
 1.676650366748166E11   -2.147978880643274E1   2.062648339748710E1  -7.413473199441353  -4.068992485485732E1  -7.420332353693159  -7.470198255209760E1  -2.968307914113590E1   3.717467023173713E1  
 1.676772616136919E11   -2.204908447681958E1   1.716977506816821E1  -7.342507164743161  -6.560439327305805E1  -7.349318242903384  -9.933256025414922E1  -2.664930832773514E1  -4.678397834952563E1  
 1.676894865525672E11   -2.244813603277022E1   1.660821626424267E1  -7.350847808043805  -9.074346604939998E1  -7.341228980817698  -1.240979187644270E2  -2.217833913969982E1  -9.386955066050631E1  
 1.677017114914425E11   -2.257904647555164E1   1.794041354729253E1  -7.351688186784032  -1.148126773861235E2  -7.322173759332249  -1.491244824221822E2  -1.951842614230367E1  -1.283795538610873E2  
 1.677139364303178E11   -2.171515650819805E1   1.837848959166260E1  -7.353841666227132  -1.396713162790791E2  -7.353857560268811  -1.736300077622084E2  -1.851745041094032E1  -1.597284345013251E2  
 1.677261613691932E11   -2.042883152910161E1   1.038549501064886E1  -7.372622057882510  -1.642040282953697E2  -7.365770765328268   1.620032074858860E2  -1.890785736202814E1   1.707579328453609E2  
 1.677383863080685E11   -1.978087323226571E1  -2.135793464509922  -7.407613037664762   1.711257463468433E2  -7.394445967185878   1.374454304360605E2  -2.056031940627828E1   1.428887835727742E2  
 1.677506112469438E11   -2.001906580853575E1  -1.727759956086446E1  -7.403540073544406   1.468587707463778E2  -7.413885040408011   1.130484190131992E2  -2.458569977791707E1   1.158498182428328E2  
 1.677628361858191E11   -2.114679779132691E1  -3.338751817127616E1  -7.399057328033444   1.224861586395059E2  -7.388035566383666   8.922433694606184E1  -3.533161306837822E1   8.760044887800515E1  
 1.677750611246944E11   -2.356093775093696E1  -4.806333195153781E1  -7.383377594672092   9.881249114657651E1  -7.373448764994518   6.473677733011206E1  -3.181333906675003E1  -1.225342248137213E2  
 1.677872860635697E11   -2.840434764681652E1  -5.135071486940976E1  -7.307992941994892   7.429683874631164E1  -7.288890856875021   4.039597878286138E1  -2.437048586714235E1  -1.485847046980463E2  
 1.677995110024450E11   -3.109673269084217E1  -2.105464155067461E1  -7.236029415796505   4.923622429361645E1  -7.246550922000823   1.580316516691886E1  -2.159082807280765E1  -1.738376213873013E2  
 1.678117359413203E11   -2.821330285271342E1  -5.784870378772686  -7.208984551464448   2.437036510365589E1  -7.206965063424295  -9.413099209672755  -2.094047381755849E1   1.611488430358837E2  
 1.678239608801956E11   -2.634063642636513E1  -1.220882854405537E1  -7.209917385844689  -5.964167069226352E-1  -7.216971608334430  -3.420142658606999E1  -2.186052324291771E1   1.366377068981361E2  
 1.678361858190709E11   -2.611640170692933E1  -2.658703887184764E1  -7.245651337101956  -2.531570728713975E1  -7.253736815863600  -5.882993939289974E1  -2.539910555328176E1   1.141593518429119E2  
 1.678484107579462E11   -2.758050860431608E1  -4.333754185150342E1  -7.284315316490619  -5.015657711847892E1  -7.310803040042322  -8.363690912570081E1  -3.598876355568702E1   1.114187508097919E2  
 1.678606356968215E11   -3.268822661926367E1  -6.087613670730095E1  -7.386389228945205  -7.464518001848971E1  -7.358654628393317  -1.077734727668817E2  -2.820782775672567E1  -1.454517168027476E2  
 1.678728606356968E11   -4.709706831254901E1   4.503707669130941E1  -7.388125656994264  -9.886678705280102E1  -7.405796180019191  -1.321054994013032E2  -2.154177566300609E1  -1.650497946750752E2  
 1.678850855745721E11   -2.936941969743011E1   6.224120037673393E1  -7.395747680367797  -1.230397023635296E2  -7.413515040153736  -1.564548855097632E2  -1.832634375376575E1   1.721674496819404E2  
 1.678973105134475E11   -2.409378306786630E1   4.256710331162791E1  -7.451267630546627  -1.477776411583639E2  -7.436092445156393   1.787705594026569E2  -1.658830719078588E1   1.489846679374209E2  
 1.679095354523228E11   -2.144651249776269E1   1.986619270691118E1  -7.473022128289142  -1.716703973407068E2  -7.469468896678213   1.546977858936645E2  -1.581024582831428E1   1.250476705249884E2  
 1.679217603911981E11   -2.017226933899109E1  -2.631345310628855  -7.499024321146041   1.639638926443610E2  -7.528343773421147   1.305310210374715E2  -1.592328189854157E1   1.003080632510944E2  
 1.679339853300734E11   -1.994171636190771E1  -2.730968257961501E1  -7.530456585600230   1.400816728341071E2  -7.538758695057524   1.068815275949690E2  -1.705171207966566E1   7.547001030147237E1  
 1.679462102689487E11   -2.079231146485020E1  -5.155936243067310E1  -7.500566415629198   1.163690527768334E2  -7.523763051901184   8.358960676391494E1  -1.946032558422989E1   5.005613414683141E1  
 1.679584352078240E11   -2.320261646694718E1  -7.770930291814732E1  -7.363960268354754   9.307392186473534E1  -7.391148748994309   5.926613712500975E1  -2.455750694311364E1   2.753936927193451E1  
 1.679706601466993E11   -2.853957008614993E1  -1.007599634354634E2  -7.238507427870120   6.840366600540807E1  -7.208958883834438   3.469573007682673E1  -3.801178296257310E1   3.008271711487132E1  
 1.679828850855746E11   -4.124864801513579E1  -1.323130893733950E2  -7.129051271936492   4.331814788219257E1  -7.141041814800552   9.724718068716300  -2.867410134998442E1   1.364639770081215E2  
 1.679951100244499E11   -3.541656924146516E1   4.151332837664129E1  -7.095250165748714   1.842153539493558E1  -7.091240611833210  -1.528677583346533E1  -2.258821619695942E1   1.166281273548946E2  
 1.680073349633252E11   -2.883802976002468E1   1.758709172089363E1  -7.135105121019260  -6.033311967095542  -7.095305648003273  -4.064892746884436E1  -2.009246577241158E1   9.253766567241559E1  
 1.680195599022005E11   -2.625850939758127E1  -3.439394518915676  -7.121218713502426  -3.047989014459931E1  -7.141906035360751  -6.497016936227848E1  -1.934180883851608E1   6.696234478268792E1  
 1.680317848410758E11   -2.578929839853821E1  -2.543687640082642E1  -7.126321187070793  -5.458288101209933E1  -7.148730044584113  -8.945393529101487E1  -2.006752988966118E1   3.993530745263393E1  
 1.680440097799511E11   -2.728898791141528E1  -4.667840311528848E1  -7.099042663234378  -7.929456043484893E1  -7.071553310911492  -1.138842965814505E2  -2.257951069199832E1   1.280755692629768E1  
 1.680562347188264E11   -3.163495841861964E1  -6.227259530192085E1  -7.044670276479533  -1.037021318432456E2  -7.037459265303587  -1.382355523355870E2  -2.827153714108653E1  -1.929026054752735E1  
 1.680684596577017E11   -4.184294359157595E1  -2.815935368092159E1  -6.963961796336256  -1.285367675340779E2  -6.962277305519307  -1.634937382606400E2  -4.186102733158215E1  -1.536847049390250E2  
 1.680806845965770E11   -3.140310794498065E1   3.561228007979029E1  -6.960266811289231  -1.532643239204112E2  -6.940465086056505   1.716103752303105E2  -2.669167859306075E1   1.307479815255375E2  
 1.680929095354523E11   -2.595200036940759E1   2.103758795660795E1  -6.997609468354716  -1.783411915605298E2  -6.988214434028647   1.469502831748279E2  -2.198102753844810E1   1.005486808468709E2  
 1.681051344743276E11   -2.311321843061104E1   1.164015198125935  -7.022527409916370   1.574500066293333E2  -7.035649957105568   1.221896829263974E2  -1.995676201396622E1   7.417156593932720E1  
 1.681173594132029E11   -2.191166235013242E1  -2.098521437815306E1  -7.093325929768102   1.334413440168268E2  -7.089987844450411   9.768631210130823E1  -1.975257045759149E1   4.856128598603405E1  
 1.681295843520783E11   -2.185634884990486E1  -4.278897496187737E1  -7.015541869324845   1.093060461142274E2  -7.020757472945330   7.370359961123083E1  -2.105794497869014E1   2.946598556290058E1  
 1.681418092909536E11   -2.269499885457397E1  -6.340376525810287E1  -6.928395003838482   8.441839488131292E1  -6.924186336847772   4.911950696359288E1  -2.288775227822387E1   1.882903035955879E1  
 1.681540342298289E11   -2.456001768170064E1  -8.469291965126799E1  -6.911824663928265   5.951626319641918E1  -6.904648000600826   2.394587527350947E1  -2.524082160920057E1   1.796141053671476E1  
 1.681662591687042E11   -2.780776994120557E1  -1.024640688265857E2  -6.913209898020367   3.407788835130024E1  -6.961232664084482  -1.191625234463012  -2.616021119759814E1   3.075775005111761E1  
 1.681784841075795E11   -3.351282381166951E1  -1.097090014002764E2  -6.984009728740683   8.964350985157804  -6.995256663293231  -2.600322766925657E1  -2.393018826474152E1   3.867522468570520E1  
 1.681907090464548E11   -3.909584361718896E1  -8.395633543171462E1  -7.087416216234826  -1.560683890081314E1  -7.127526382862165  -5.040819719899963E1  -2.131174997472480E1   2.837994090570739E1  
 1.682029339853301E11   -3.718747248096165E1  -5.603968576988200E1  -7.206295281196637  -3.937678662931207E1  -7.228892647391464  -7.471034046413743E1  -1.999339532452715E1   6.637104759478788  
 1.682151589242054E11   -3.622633844828054E1  -5.484266418101885E1  -7.200203147528961  -6.319407360936290E1  -7.205319528718624  -9.796783165023497E1  -2.046387539472692E1  -1.902328219694358E1  
 1.682273838630807E11   -3.763772914246025E1  -5.872062228522196E1  -7.118228574073245  -8.742682562601527E1  -7.118664389396014  -1.226005260419952E2  -2.266883703915712E1  -4.508170031867492E1  
 1.682396088019560E11   -4.195974242615853E1  -5.802182884376323E1  -7.009293162242125  -1.118942291428997E2  -7.045862797276314  -1.473082937399293E2  -2.688535219100810E1  -7.366722372090355E1  
 1.682518337408313E11   -4.410691612309898E1  -1.253134133960102E1  -7.013111990514068  -1.366489399885924E2  -7.008418472017703  -1.720860062611752E2  -3.641256205643889E1  -1.301192077332465E2  
 1.682640586797066E11   -3.685219517208853E1   1.351019258630462E1  -7.073313744088678  -1.619542705417226E2  -7.060725012239008   1.626814108725065E2  -3.159985327407950E1   9.643248434997589E1  
 1.682762836185819E11   -3.399674067233033E1  -1.957016261878148  -7.123583775150448   1.735010641055607E2  -7.134596080237913   1.384202328094042E2  -2.524941679596486E1   5.856181132976649E1  
 1.682885085574572E11   -3.414818035393135E1  -1.974835414676514E1  -7.228356617907915   1.500479969430110E2  -7.222740223696356   1.147716518507826E2  -2.260568065076326E1   2.863196515539392E1  
 1.683007334963325E11   -3.816357200120697E1  -4.007942874011314E1  -7.188827326906934   1.263521222307501E2  -7.200163091321620   9.110458941563272E1  -2.246360203141678E1  -1.626033867260193  
 1.683129584352078E11   -4.808246040542823E1  -1.504901470989433E1  -7.061283780798679   1.027318635348421E2  -7.027729318255307   6.703213785459533E1  -2.460551481237086E1  -2.769353537587709E1  
 1.683251833740831E11   -4.212551680387035E1   7.636575491935928E1  -6.894879296850377   7.786362997801295E1  -6.903045281344930   4.284403882019244E1  -2.934380933875755E1  -5.046100641850794E1  
 1.683374083129584E11   -3.354195550386112E1   8.601748469815601E1  -6.815405367476284   5.252025066585897E1  -6.833874485493338   1.689961239781230E1  -6.125707775470624E1  -1.046161942132462E2  
 1.683496332518337E11   -2.801748793801766E1   7.051950727241477E1  -6.825353467372441   2.685093340085258E1  -6.834916607962605  -8.429825920726117  -2.851358160240932E1   8.411552520461228E1  
 1.683618581907091E11   -2.514236246604626E1   5.174983633694681E1  -6.890254778524213   1.630535266911810  -6.888142183361401  -3.335016122733529E1  -2.246519402256185E1   5.884833686705886E1  
 1.683740831295844E11   -2.346516800481448E1   3.346443244676426E1  -7.031188146180505  -2.270247191367798E1  -7.057900478575753  -5.757859072512070E1  -1.955646981831761E1   3.251606595321499E1  
 1.683863080684597E11   -2.302244378318448E1   1.703451899121888E1  -7.139874619335245  -4.652262658017035E1  -7.116340374321401  -8.122711892798436E1  -1.855584871612334E1   4.143012295669264  
 1.683985330073350E11   -2.283986915073895E1   5.917009525949549  -7.022980264779116  -7.028926743205037E1  -7.031627402079961  -1.052539948839982E2  -1.933309153011137E1  -1.965199843239555E1  
 1.684107579462103E11   -2.269529909984840E1  -7.791431700437117  -6.910304505360955  -9.476130562564403E1  -6.924135589950688  -1.292899843761960E2  -2.092545565027167E1  -3.980828105456249E1  
 1.684229828850856E11   -2.373902431668311E1  -1.948857516644170E1  -6.833852777849825  -1.195786237079111E2  -6.846988437683751  -1.541046016559681E2  -2.416005441339210E1  -5.759981764063790E1  
 1.684352078239609E11   -2.581270471308981E1  -2.253270276385617E1  -6.762815307468631  -1.448083749145003E2  -6.781521684248444  -1.790083765563103E2  -3.122368628204224E1  -6.940873642648469E1  
 1.684474327628362E11   -2.714486601896484E1  -1.086579756206118E1  -6.771588948036067  -1.698845195128608E2  -6.799721347614470   1.556828267789801E2  -3.349571852528162E1   3.563136207609308E1  
 1.684596577017115E11   -2.542503243277272E1   6.705441903278099E-1  -6.916133004051834   1.647571301597586E2  -6.921302383637013   1.306375723615361E2  -2.393352250664042E1   2.895956419995678E1  
 1.684718826405868E11   -2.336227537691401E1  -3.202434152177630  -7.053791222264843   1.407609020624168E2  -7.060895073760466   1.062562332896923E2  -2.026611819579077E1   2.055330235560009  
 1.684841075794621E11   -2.209902447628726E1  -9.581243799848593  -7.076679903563726   1.171396778463771E2  -7.081393281582836   8.297425502005081E1  -1.949417012832630E1  -2.526141350499468E1  
 1.684963325183374E11   -2.093566861811825E1  -1.919081531226826E1  -6.987526022646482   9.272322568693249E1  -7.015133192191561   5.931818046984405E1  -2.023716329175482E1  -4.792903532162447E1  
 1.685085574572127E11   -2.053573951723057E1  -3.231320327812382E1  -6.899499996209409   6.859579198740835E1  -6.917552243809627   3.466508796332342E1  -2.171308091680950E1  -7.056074361694196E1  
 1.685207823960880E11   -2.082876173632954E1  -4.371296932807268E1  -6.874582675990927   4.416929093030809E1  -6.861976610327322   9.242699216640697  -2.498272700867886E1  -9.581272824502572E1  
 1.685330073349633E11   -2.178986509653213E1  -5.374907601299850E1  -6.823422966857539   1.888981617319192E1  -6.859209602610199  -1.554292369203725E1  -3.219928890218012E1  -1.362801890058429E2  
 1.685452322738386E11   -2.254099329988643E1  -5.740369738487321E1  -6.876756879964826  -5.606996762115506  -6.891645088735544  -4.049871026616127E1  -3.355173454430988E1   8.460146292384887E1  
 1.685574572127139E11   -2.318828225847963E1  -6.258656170248739E1  -6.971389945629340  -2.996821235912029E1  -6.982416672979255  -6.456927788568817E1  -2.548658456517677E1   3.267905266247009E1  
 1.685696821515892E11   -2.428826915298217E1  -6.613745960380403E1  -6.936870318714185  -5.378076061557777E1  -6.956026146680631  -8.879904477920455E1  -2.310489475664384E1   6.442454548604686E-1  
 1.685819070904645E11   -2.481906732721611E1  -6.424581898197457E1  -6.820708769672332  -7.779705972613179E1  -6.847618303827010  -1.127243174497000E2  -2.288839621907518E1  -2.010473169345972E1  
 1.685941320293398E11   -2.459946118075576E1  -6.635721443661667E1  -6.744571836497753  -1.028570510871579E2  -6.761799064627122  -1.376976196776503E2  -2.332434439165591E1  -3.809866675746489E1  
 1.686063569682152E11   -2.475002020991590E1  -7.325632446247364E1  -6.719834350944553  -1.286235049600210E2  -6.722261771083552  -1.625359430877224E2  -2.528421976410536E1  -5.562328767835979E1  
 1.686185819070905E11   -2.613946133499306E1  -7.974757647019827E1  -6.743831625115346  -1.533519127944327E2  -6.717456182761363   1.721847789646115E2  -3.071404000801187E1  -6.227108299483413E1  
 1.686308068459658E11   -2.820491323559321E1  -7.982852984629041E1  -6.812191612571066  -1.786922940042769E2  -6.807918984806810   1.474256212947744E2  -3.356394127802652E1   7.026261677427145  
 1.686430317848411E11   -2.947001595488791E1  -7.008295987329319E1  -6.978606812508160   1.570874859304905E2  -6.978277061320694   1.228072999279136E2  -2.498946283495038E1   9.736163508328144  
 1.686552567237164E11   -3.047633759654611E1  -5.819109165638822E1  -7.033171580045656   1.338251145220196E2  -7.014143692623439   9.924618424281998E1  -2.245457923993583E1  -1.199114451007100E1  
 1.686674816625917E11   -2.879848989347842E1  -3.661071732916880E1  -6.911260664688042   1.098344014488578E2  -6.930816171299870   7.536045272045118E1  -2.152763148321547E1  -2.917080100222514E1  
 1.686797066014670E11   -2.568727486498171E1  -3.906402268876314E1  -6.839987952009390   8.531415274071509E1  -6.866940260169107   5.078756850399388E1  -2.108199586914641E1  -4.689479621306376E1  
 1.686919315403423E11   -2.417590788898741E1  -5.033928756921645E1  -6.827512205140656   6.078592147747287E1  -6.848347674354861   2.615608418116200E1  -2.170474410974795E1  -6.867872914852848E1  
 1.687041564792176E11   -2.370309055315758E1  -6.182727117793249E1  -6.785669894944008   3.591300920399560E1  -6.803378600534821   1.280537672602472  -2.376772352599381E1  -9.371172569526941E1  
 1.687163814180929E11   -2.394419996563302E1  -6.986205400938009E1  -6.766201978152213   1.113576450720562E1  -6.797422508775728  -2.353586010350151E1  -2.834015346644075E1  -1.236294034474758E2  
 1.687286063569682E11   -2.399890571352183E1  -7.540368735768705E1  -6.874790441061857  -1.360895260642649E1  -6.902320738861172  -4.797910534900853E1  -4.151874126533598E1   1.710371519579587E2  
 1.687408312958435E11   -2.412783395383679E1  -8.608293090689496E1  -6.947776738234810  -3.708773960576144E1  -6.978803516787933  -7.180740674829313E1  -3.481367304176656E1   1.165846555831747E1  
 1.687530562347188E11   -2.581637917776685E1  -9.424843571790370E1  -6.786304519041984  -6.066622999618412E1  -6.852138564241906  -9.554148039173602E1  -3.401285427452067E1   3.514933402642921  
 1.687652811735941E11   -2.739043241700535E1  -9.299843553141059E1  -6.620277354061757  -8.549603315579508E1  -6.659607510791675  -1.203856408469608E2  -3.093319142378715E1   1.574998969502013E1  
 1.687775061124694E11   -2.802979961029464E1  -9.113624103679921E1  -6.510311213763809  -1.107601887769882E2  -6.555147290006224  -1.452983230021839E2  -2.871218021767237E1   9.712534121853667  
 1.687897310513447E11   -2.944985206735824E1  -9.263600726635742E1  -6.482298840522344  -1.358834850458222E2  -6.537638845122126  -1.712520784997989E2  -2.842812935254959E1   3.636008455050473  
 1.688019559902200E11   -3.106133901488957E1  -7.866895837131034E1  -6.560582718005785  -1.620482024860989E2  -6.597765214257474   1.636052247233719E2  -2.845252951261211E1   1.517322436004117E1  
 1.688141809290953E11   -2.929830581079733E1  -5.880607380820040E1  -6.709316128413221   1.729015599974501E2  -6.735821274777512   1.387603006525919E2  -2.487693189913933E1   2.464437830519858E1  
 1.688264058679706E11   -2.669284112674919E1  -6.378526236278880E1  -6.908315132668030   1.494985052495347E2  -6.944779421113250   1.144894615915653E2  -2.162233204965400E1   1.027132859347141E1  
 1.688386308068460E11   -2.625541843300148E1  -6.946839879474123E1  -6.862605233896185   1.259825240037769E2  -6.883722603609641   9.176286852189242E1  -2.120388674181471E1  -6.231779166495564  
 1.688508557457213E11   -2.487249357464275E1  -6.968540535307852E1  -6.712541630117817   1.018017649361826E2  -6.752530378312710   6.727495412040412E1  -2.136032283391152E1  -1.219611289022256E1  
 1.688630806845966E11   -2.315625193330383E1  -7.956636060107033E1  -6.617301585628463   7.671064318879409E1  -6.669229286182231   4.246620862639629E1  -2.069679301534527E1  -1.714204022238986E1  
 1.688753056234719E11   -2.244511356222930E1  -9.580703545965608E1  -6.601582593505811   5.160370765510384E1  -6.611258454989812   1.739337764392428E1  -2.009737695199272E1  -2.584935207058049E1  
 1.688875305623472E11   -2.283589165598606E1  -1.144636312079154E2  -6.592444064111105   2.650966016197753E1  -6.651763369048801  -7.388860253698574  -2.022063909366469E1  -3.533575498486874E1  
 1.688997555012225E11   -2.420250566649682E1  -1.320010202259391E2  -6.672696075328426   1.474732729250125  -6.703204977355211  -3.292420336971237E1  -2.061603548391505E1  -4.061870178450927E1  
 1.689119804400978E11   -2.616509897041739E1  -1.467854595543825E2  -6.842265265100620  -2.261461146938745E1  -6.874574394074154  -5.759453444009363E1  -1.991759723109831E1  -4.373426813860900E1  
 1.689242053789731E11   -2.877973223369536E1  -1.679698146531050E2  -6.862977504156643  -4.600216726776184E1  -6.874697598479983  -8.055911140667067E1  -1.923250279771884E1  -5.945902206124308E1  
 1.689364303178484E11   -3.540497797753214E1   1.584477559268719E2  -6.700211125586461  -7.000275089357912E1  -6.763891840963879  -1.047019711142916E2  -2.044843131987440E1  -7.814903508030643E1  
 1.689486552567237E11   -4.321229293284080E1   2.722840427343520E1  -6.592935344285648  -9.525282378343054E1  -6.645832379969637  -1.294804453322417E2  -2.301768494121260E1  -9.106977131314838E1  
 1.689608801955990E11   -3.408502588685501E1  -2.903376090708773E1  -6.552686137199452  -1.201735930270121E2  -6.591303184380247  -1.549064761264901E2  -2.653339011319257E1  -9.831018453439884E1  
 1.689731051344743E11   -3.092905010380281E1  -4.648564419302914E1  -6.551428367352335  -1.459863425503741E2  -6.605823830297714   1.799340026062530E2  -3.138660566039888E1  -9.639199805034491E1  
 1.689853300733496E11   -2.929326294802979E1  -5.692911942916086E1  -6.644645009864179  -1.715224984616033E2  -6.685576106096507   1.546049405515421E2  -3.882737280677081E1  -4.737229073847118E1  
 1.689975550122250E11   -2.725149207275227E1  -6.836170471114437E1  -6.835855251812607   1.639572964307419E2  -6.855277714342954   1.297011198352529E2  -3.002560555143143E1  -5.300225250876355E-1  
 1.690097799511003E11   -2.671470805152513E1  -8.703010478714614E1  -6.959129246740294   1.403741453365319E2  -6.983664316303299   1.065127948534666E2  -2.610711802502832E1  -2.054388452928327E1  
 1.690220048899756E11   -2.837497045738492E1  -9.746363523858942E1  -6.894997421412572   1.164599494777549E2  -6.931839826728316   8.244050739729130E1  -2.733215409383703E1  -3.516940116178251E1  
 1.690342298288509E11   -2.900804167851069E1  -9.999512860734410E1  -6.805088953119288   9.170435884809778E1  -6.822595071809339   5.802222088549943E1  -2.905579033357397E1  -2.378226637950098E1  
 1.690464547677262E11   -2.914856469453778E1  -1.048178353273314E2  -6.793579259523758   6.701280462224553E1  -6.843307068349843   3.290396281399483E1  -2.772312812126313E1  -6.133884200647049  
 1.690586797066015E11   -3.037882330928145E1  -1.152416526923124E2  -6.844373804755465   4.186299109631245E1  -6.867791842182309   8.016210952121091  -2.561967469997233E1  -1.002758997530292  
 1.690709046454768E11   -3.307643300891312E1  -1.204304087369473E2  -6.918291960370680   1.726225322159241E1  -6.946137636192789  -1.679988411077547E1  -2.367981608898395E1  -6.149230061526957E-1  
 1.690831295843521E11   -3.564182519034080E1  -1.066051236733504E2  -7.088610019592314  -7.046420483510010  -7.099418052095320  -4.109179249939991E1  -2.126702369715797E1  -6.176861337562198  
 1.690953545232274E11   -3.766672305400310E1  -9.406037521570121E1  -7.118043739647433  -3.035291151853656E1  -7.115279262945963  -6.439667089066904E1  -2.013920115927778E1  -2.215550620931048E1  
 1.691075794621027E11   -3.638098793424943E1  -4.818483519878747E1  -6.976699586006149  -5.399604589388170E1  -6.997446764700605  -8.849009276763462E1  -2.112656876811263E1  -3.412632607641679E1  
 1.691198044009780E11   -3.057611937404973E1  -4.572997851273991E1  -6.885887928347581  -7.915030444441008E1  -6.886907914941773  -1.132850999471531E2  -2.255662784822806E1  -3.420738606754932E1  
 1.691320293398533E11   -2.766652264092231E1  -6.402629191897198E1  -6.855626554453509  -1.039391418630721E2  -6.870965142556598  -1.385424930352055E2  -2.280135716090909E1  -2.485194295528245E1  
 1.691442542787286E11   -2.682881152757606E1  -8.374488563811151E1  -6.854661900762482  -1.290375198413314E2  -6.858318564413104  -1.633700665655028E2  -2.157683987728532E1  -2.011656460204951E1  
 1.691564792176039E11   -2.775183481974413E1  -1.014083161370357E2  -6.944953921607593  -1.544761231440266E2  -6.984237404798707   1.709230128749468E2  -2.041528209298963E1  -2.067030571716528E1  
 1.691687041564792E11   -2.974965264985675E1  -1.137543662846902E2  -7.171025667589708  -1.792551246816383E2  -7.201498116438408   1.465888939859702E2  -1.898318338910060E1  -2.107537774623755E1  
 1.691809290953545E11   -3.261232558901121E1  -1.285832178319614E2  -7.344395794862200   1.577452850196227E2  -7.347431226048707   1.235629137909000E2  -1.734362004503137E1  -3.154786529410480E1  
 1.691931540342298E11   -4.612852327489574E1  -1.370474421463415E2  -7.250484852821706   1.345908521830491E2  -7.282009673481947   1.008115663568026E2  -1.754029574285207E1  -4.633778591279899E1  
 1.692053789731051E11   -3.384539080888256E1  -1.037357180440668E1  -7.120747366949648   1.108240484475117E2  -7.154077174492124   7.620063582472628E1  -1.892717096701565E1  -5.234474453510980E1  
 1.692176039119804E11   -2.734479308679715E1  -3.129085892372615E1  -7.026625381820332   8.600602384350559E1  -7.036746352523522   5.196193827148504E1  -2.001895497576317E1  -4.682831775967809E1  
 1.692298288508557E11   -2.449116385107821E1  -5.479885540812509E1  -6.954649187762266   6.118501099286650E1  -6.980941966129851   2.703986998472738E1  -1.924713903955372E1  -3.844208885162470E1  
 1.692420537897311E11   -2.335576022030048E1  -7.882396152549775E1  -6.941320952001073   3.590554571048633E1  -6.952282204095368   1.833844738684846  -1.747751350181276E1  -3.817590979720763E1  
 1.692542787286064E11   -2.383484592650284E1  -1.017611224482929E2  -6.998554249444987   1.090566805485056E1  -7.040429166573286  -2.307833217951820E1  -1.599371888305458E1  -4.454002094356682E1  
 1.692665036674817E11   -2.515777697895523E1  -1.232595480023180E2  -7.143909579868393  -1.329863255040100E1  -7.161345320135919  -4.706413662612244E1  -1.484324215922215E1  -5.426280026840541E1  
 1.692787286063570E11   -2.856798082642789E1  -1.499403066190458E2  -7.126513077206161  -3.648062668897661E1  -7.145066146229453  -7.049023461270561E1  -1.426911274592232E1  -6.850164748100319E1  
 1.692909535452323E11   -3.870325754297085E1   1.618214560596173E2  -7.041392249484248  -6.090857881614700E1  -7.066479033075176  -9.489468661320829E1  -1.476740791285706E1  -8.318267479939340E1  
 1.693031784841076E11   -3.289737679555175E1   3.547340292417228  -6.931738027152137  -8.544815185996586E1  -6.991606787856155  -1.192731399330213E2  -1.610102347874793E1  -9.425100428601502E1  
 1.693154034229829E11   -2.590814545876680E1  -2.922685826086941E1  -6.843269518148063  -1.102769035982221E2  -6.889126309310623  -1.438650696793393E2  -1.779356767834081E1  -9.971766022351797E1  
 1.693276283618582E11   -2.272642485860504E1  -5.373453714297335E1  -6.784917872029507  -1.351455814760183E2  -6.843210728900160  -1.695527062235371E2  -1.920012650221618E1  -9.852725053645656E1  
 1.693398533007335E11   -2.134670830776882E1  -7.737318164885561E1  -6.829101026317780  -1.602084218174595E2  -6.871160846617246   1.658763176404586E2  -1.970403496538515E1  -9.498725859029045E1  
 1.693520782396088E11   -2.091032195028500E1  -9.929097995023172E1  -6.921249653660009   1.748051874381780E2  -6.948750942229168   1.408290002612175E2  -1.948139270813394E1  -9.413022324731570E1  
 1.693643031784841E11   -2.160678218868465E1  -1.199789451546011E2  -6.971149377104710   1.506998252416939E2  -6.999523421243626   1.165862401765772E2  -1.892474468122305E1  -1.009235664832711E2  
 1.693765281173594E11   -2.361642579964786E1  -1.367903255188335E2  -6.948001523187729   1.266870671536619E2  -6.973526779428139   9.224640277327879E1  -1.956616827713848E1  -1.143915315889277E2  
 1.693887530562347E11   -2.658947154698936E1  -1.462884653679723E2  -6.896692781492724   1.024631953532322E2  -6.929102079029939   6.777036149693915E1  -2.199317314945219E1  -1.283236256519763E2  
 1.694009779951100E11   -2.993443395986432E1  -1.434155724287101E2  -6.851396708253434   7.766668938014084E1  -6.887657123140712   4.315278822784675E1  -2.707706927976678E1  -1.321428944469777E2  
 1.694132029339853E11   -3.150092043672180E1  -1.210912864310034E2  -6.835648810077663   5.274458321477107E1  -6.884578840670562   1.804395047957073E1  -3.341089837312309E1  -8.180394234786971E1  
 1.694254278728606E11   -2.924343480033171E1  -1.107186096278332E2  -6.874335064530031   2.788705651095113E1  -6.908093633495317  -6.596648189527458  -2.657996390645169E1  -4.305791941044397E1  
 1.694376528117359E11   -2.742822550784067E1  -1.172495743864960E2  -6.982719059213762   3.366591091951339  -6.993260900485330  -3.103741703243114E1  -2.209886433290204E1  -4.699398680025159E1  
 1.694498777506112E11   -2.710364222155774E1  -1.353333677045033E2  -6.988913499685402  -2.046703006800193E1  -7.034463508842905  -5.499660648001056E1  -1.961129435850507E1  -6.143445921830949E1  
 1.694621026894865E11   -2.934017512419481E1  -1.569843277312741E2  -6.943926783866427  -4.486382521041427E1  -6.974853378940614  -7.901086169055085E1  -1.915349128162887E1  -7.852486282634892E1  
 1.694743276283619E11   -3.578538653736234E1  -1.744432594214717E2  -6.876417091982472  -6.932592251869994E1  -6.914229626317448  -1.038627655923579E2  -2.025513493447916E1  -9.005640167366740E1  
 1.694865525672372E11   -4.545213241469764E1  -3.738397554586710E1  -6.857102557362377  -9.407994431235002E1  -6.876789364708838  -1.287074854507087E2  -2.213342443928445E1  -9.174392446304633E1  
 1.694987775061125E11   -3.181810308491027E1  -4.159883766673878E1  -6.831500274280599  -1.189382553000017E2  -6.869087955789905  -1.535080327670313E2  -2.313026428023358E1  -8.031680616702980E1  
 1.695110024449878E11   -2.682707129303402E1  -6.039262550618297E1  -6.869691168740758  -1.442776553669883E2  -6.924767740772860  -1.784454395083121E2  -2.188141522066505E1  -7.051537168813049E1  
 1.695232273838631E11   -2.445961749801906E1  -7.966482335201174E1  -6.977470885215452  -1.687405208387690E2  -7.002640073203886   1.569605429472942E2  -1.999412747752207E1  -7.051687929275886E1  
 1.695354523227384E11   -2.387542992771910E1  -9.966015862332503E1  -6.997575071828303   1.678093298263064E2  -7.032394071980646   1.325667519183807E2  -1.844387580878265E1  -8.032218167254250E1  
 1.695476772616137E11   -2.504414288685858E1  -1.133288896907679E2  -6.960867788498278   1.434596211905357E2  -7.005748072149007   1.085425086474911E2  -1.830543950309957E1  -9.481740488078400E1  
 1.695599022004890E11   -2.722564364393047E1  -1.140685764008234E2  -6.906160214048199   1.187513043030619E2  -6.958512476987604   8.409762660893857E1  -1.957777232069462E1  -1.065113305923158E2  
 1.695721271393643E11   -2.773542697148715E1  -9.874927011580608E1  -6.865924136023554   9.382819777440506E1  -6.905217838738862   5.951346244278697E1  -2.195526482611380E1  -1.100312767625616E2  
 1.695843520782396E11   -2.529076970184514E1  -8.595660700906316E1  -6.821814984774984   6.956271491707062E1  -6.866384383709034   3.459016542380272E1  -2.416929134041960E1  -9.626359997130412E1  
 1.695965770171149E11   -2.196988534347724E1  -8.958414988939158E1  -6.851428121335021   4.402240547623181E1  -6.873825107189963   9.358645188832451  -2.283005883547881E1  -7.701949455677816E1  
 1.696088019559902E11   -1.951692442046615E1  -1.029326014002854E2  -6.898395792415804   1.853838088119298E1  -6.939583469519287  -1.524427399163098E1  -2.009132148261651E1  -7.573934858926380E1  
 1.696210268948655E11   -1.816876178445674E1  -1.207641864650619E2  -6.997955097401251  -5.805412435747225  -7.046207516592654  -4.011267616261497E1  -1.813715081644272E1  -8.618311343382030E1  
 1.696332518337408E11   -1.781341664996028E1  -1.386207276511631E2  -7.075028435135959  -3.018443607990487E1  -7.110873585731725  -6.452792919591650E1  -1.751791818566390E1  -1.021002489354697E2  
 1.696454767726162E11   -1.811995190819527E1  -1.545920480468984E2  -7.146084570794957  -5.446807288404691E1  -7.171867049491618  -8.923862430977532E1  -1.842590590769387E1  -1.185416904898023E2  
 1.696577017114915E11   -1.886844743540285E1  -1.690854990622821E2  -7.238721911450522  -7.904668035887842E1  -7.253941707982690  -1.132655522748273E2  -2.080237452537563E1  -1.315237849985008E2  
 1.696699266503668E11   -2.024629308828274E1   1.782967396055443E2  -7.254073517098656  -1.029833104985180E2  -7.263509961720068  -1.370768116543564E2  -2.521773495909729E1  -1.348136426329038E2  
 1.696821515892421E11   -2.219385514536460E1   1.716204813934407E2  -7.232028269557171  -1.270630246351394E2  -7.250288442160007  -1.619436233987265E2  -2.987176046486407E1  -9.213048622476421E1  
 1.696943765281174E11   -2.377808206914758E1   1.756704145490851E2  -7.246581919089168  -1.511615815434045E2  -7.276922275316886   1.740498299435655E2  -2.385169721993804E1  -5.817366902752232E1  
 1.697066014669927E11   -2.289828535913062E1   1.798526911588853E2  -7.251010262054042  -1.754534692362915E2  -7.271712075785614   1.500868737507905E2  -1.932589067422393E1  -6.593221394871267E1  
 1.697188264058680E11   -2.179479076224945E1   1.704865688510124E2  -7.197109483434179   1.604679753807081E2  -7.229780836156760   1.257523592651956E2  -1.698728319416061E1  -8.295166658628139E1  
 1.697310513447433E11   -2.164901961786094E1   1.550558758691782E2  -7.149043461884099   1.357936090030122E2  -7.179827346601099   1.012898069828099E2  -1.630849526230591E1  -1.013685516044130E2  
 1.697432762836186E11   -2.260686502421983E1   1.391632758223307E2  -7.096381385518598   1.111790985639069E2  -7.104982219495865   7.702587265206346E1  -1.685229442851896E1  -1.193496846762696E2  
 1.697555012224939E11   -2.439953743014001E1   1.244078427900335E2  -7.064965309050073   8.615103908046505E1  -7.110344350130901   5.219941121078355E1  -1.877596251775334E1  -1.332094617004615E2  
 1.697677261613692E11   -2.769372870817017E1   1.114762281991309E2  -7.076661407858484   6.157921291278698E1  -7.091333729872536   2.725368619093921E1  -2.214312144636507E1  -1.379371641418668E2  
 1.697799511002445E11   -3.374771895407448E1   1.096435174124278E2  -7.086307216378541   3.701641494727178E1  -7.119443240831559   2.545972403676106  -2.544127354549402E1  -1.131705777046984E2  
 1.697921760391198E11   -3.528213095554659E1   1.775101706342565E2  -7.109913736884884   1.200221817193095E1  -7.119856792704454  -2.227492374581135E1  -2.209505751712399E1  -8.822830777334528E1  
 1.698044009779951E11   -2.860354109897428E1  -1.778026138316994E2  -7.115197714795190  -1.248584992007387E1  -7.165397637003253  -4.726324354030214E1  -1.860037396400920E1  -9.505807656813192E1  
 1.698166259168704E11   -2.545823562692961E1   1.631142130915345E2  -7.206157271660361  -3.707044927407009E1  -7.232035731421111  -7.159473982701007E1  -1.696391827443275E1  -1.101171722343363E2  
 1.698288508557457E11   -2.424330275531024E1   1.426242602760104E2  -7.281781127995753  -6.204897893472938E1  -7.326713944835984  -9.606033359993850E1  -1.671910325887242E1  -1.271862648232496E2  
 1.698410757946210E11   -2.391788357284631E1   1.200662139305764E2  -7.363532820022605  -8.631639860027647E1  -7.403332652971151  -1.205093314220102E2  -1.763907972986068E1  -1.438031926329158E2  
 1.698533007334963E11   -2.451034698439141E1   9.359744324421978E1  -7.376417451100444  -1.098155237657474E2  -7.427100208678094  -1.440546651845573E2  -2.006344698534601E1  -1.576291557326293E2  
 1.698655256723716E11   -2.642324724497549E1   6.440208712328150E1  -7.397700036211061  -1.340797936151895E2  -7.429944388243374  -1.683712045921830E2  -2.415214500951553E1  -1.570131484759309E2  
 1.698777506112470E11   -3.059790401977584E1   3.298950120635252E1  -7.361907525193740  -1.579824418085889E2  -7.393220052313005   1.674881893921440E2  -2.615507354159557E1  -1.246493588068238E2  
 1.698899755501223E11   -3.814500301030529E1  -8.923269458614612  -7.301258197157538   1.776918991796281E2  -7.327086601709254   1.440180852830814E2  -2.243410123853836E1  -1.105362577368430E2  
 1.699022004889976E11   -4.454834587247920E1  -1.629892557285006E2  -7.227503953170993   1.530960481107307E2  -7.265575192934990   1.192134352763675E2  -2.005271017553698E1  -1.183800649100776E2  
 1.699144254278729E11   -3.433289446493641E1   1.369866467153994E2  -7.213816156588861   1.278880594840694E2  -7.258118130741083   9.466029340761378E1  -1.899394002475805E1  -1.310941098370116E2  
 1.699266503667482E11   -3.042496565206438E1   9.970420731328646E1  -7.228011726108941   1.031184424614126E2  -7.253115646927280   7.001435929527520E1  -1.892759712399090E1  -1.457391106403111E2  
 1.699388753056235E11   -2.759769098944858E1   6.053811760042144E1  -7.189937870411381   7.886143014817863E1  -7.245942044933219   4.535511770773152E1  -2.011710220595475E1  -1.609071052752618E2  
 1.699511002444988E11   -2.550340971514019E1   2.050433550249803E1  -7.181423007184235   5.412938161263008E1  -7.236498092492416   2.084092434577548E1  -2.312122777930949E1  -1.704496896446193E2  
 1.699633251833741E11   -2.413136815925759E1  -1.794159321514392E1  -7.164266056939061   2.915563805755956E1  -7.199815193819648  -3.660741975871099  -2.684820980837284E1  -1.507489692534060E2  
 1.699755501222494E11   -2.318425445677339E1  -5.217466442692489E1  -7.172783467931129   4.478401018947539  -7.202291355885651  -2.844973219514120E1  -2.390748648525598E1  -1.276688261634059E2  
 1.699877750611247E11   -2.261795583625520E1  -8.286599541765402E1  -7.225167450894096  -2.087965516959505E1  -7.272702901380847  -5.371086418489454E1  -2.093273093406556E1  -1.355420005751788E2  
 1.700000000000000E11   -2.249822575627632E1  -1.118252138243511E2  -7.334260871270821  -4.562728131429007E1  -7.360247757407457  -7.823293528441009E1  -1.975911669993072E1  -1.523215647235708E2  
 1.700122249388753E11   -2.302066999363720E1  -1.395703060918237E2  -7.430143196826072  -7.019932883031804E1  -7.501433403079957  -1.026980267377992E2  -1.987491956872362E1  -1.707479073743817E2  
 1.700244498777506E11   -2.467457304373843E1  -1.679595978353339E2  -7.549640806658400  -9.356110033710469E1  -7.589016495919523  -1.263622719096751E2  -2.093421061424056E1   1.693859714984750E2  
 1.700366748166259E11   -2.875596218710474E1   1.612583196067378E2  -7.568615576210000  -1.171595240849737E2  -7.598595463583963  -1.499704402080128E2  -2.333801316778836E1   1.451817431747435E2  
 1.700488997555012E11   -4.302197901731793E1   1.289023274267810E2  -7.474387365234550  -1.409112493601535E2  -7.529225748051837  -1.737049199033716E2  -2.931960698454542E1   1.087077788626029E2  
 1.700611246943765E11   -3.359992684630264E1  -7.307473007675961E1  -7.345974866899748  -1.653452118536889E2  -7.392972610833603   1.619806265302145E2  -3.638901412773824E1  -2.918526705657579E1  
 1.700733496332518E11   -2.682874218643125E1  -9.623211218330340E1  -7.248543681192786   1.693803198344572E2  -7.303835873473596   1.377270276026376E2  -2.656300107429668E1  -9.372204481302828E1  
 1.700855745721271E11   -2.360470013511131E1  -1.190240947596120E2  -7.244058115614370   1.448945063651439E2  -7.279597231693672   1.117688748604365E2  -2.308437262566154E1  -1.256884439199236E2  
 1.700977995110024E11   -2.199814228938274E1  -1.406363944863515E2  -7.310241477729347   1.195291535297082E2  -7.348819840153931   8.662378355397303E1  -2.217461716943596E1  -1.530523660550419E2  
 1.701100244498778E11   -2.158997083383773E1  -1.618589240470265E2  -7.410198721595994   9.524988602137097E1  -7.428305892407217   6.253029086661568E1  -2.245258837412386E1  -1.797571882330527E2  
 1.701222493887531E11   -2.227460814902048E1   1.785279097805511E2  -7.443748614299382   7.145124138193859E1  -7.481935149790137   3.871561568070889E1  -2.364536921664560E1   1.470556843213561E2  
 1.701344743276284E11   -2.421263588600359E1   1.676022729946408E2  -7.422310268047864   4.757821434291104E1  -7.462879039405616   1.494648687838098E1  -2.598047622772761E1   9.996391305918097E1  
 1.701466992665037E11   -2.567562228649602E1   1.693806244698607E2  -7.293399320309135   2.344759333680466E1  -7.325862118413703  -9.464969958335567  -2.718393411199262E1   3.090010346701216E1  
 1.701589242053790E11   -2.548796753509777E1   1.767446800675733E2  -7.202639414383070  -1.630636904764810  -7.237264036460111  -3.500941962463780E1  -2.469677303391465E1  -3.235616847978629E1  
 1.701711491442543E11   -2.372221386077746E1   1.759526582458565E2  -7.226297732295059  -2.721946635508210E1  -7.266394379555420  -6.037363366618745E1  -2.248353456007616E1  -7.601566768762000E1  
 1.701833740831296E11   -2.198379525947012E1   1.672644177537795E2  -7.364788510074060  -5.245708543345565E1  -7.390993592000722  -8.568401904047337E1  -2.157144297915002E1  -1.113555336486174E2  
 1.701955990220049E11   -2.063347169292706E1   1.511025753366754E2  -7.549516014390410  -7.673532689238428E1  -7.578745872167730  -1.101497304036739E2  -2.209625923582705E1  -1.461147075333928E2  
 1.702078239608802E11   -2.025746568017229E1   1.300960229728879E2  -7.702844400822221  -1.001207906478932E2  -7.739631336898921  -1.340323687997082E2  -2.468445893682198E1   1.736630193381696E2  
 1.702200488997555E11   -2.137531380878359E1   1.068419391312260E2  -7.703107911036546  -1.227564904941642E2  -7.740113992605853  -1.566703794375090E2  -3.015304342897646E1   1.120942497050018E2  
 1.702322738386308E11   -2.424047753595320E1   8.610491589031901E1  -7.538213113038966  -1.459507157891496E2  -7.554693961866237   1.792987431600307E2  -2.930096354944906E1   1.343480732148791E1  
 1.702444987775061E11   -2.937578280757928E1   7.291266546383935E1  -7.347992122392056  -1.704101247370116E2  -7.388393857318106   1.548974338785864E2  -2.409910037645583E1  -3.610906141440879E1  
 1.702567237163814E11   -3.838181063527514E1   1.187834818306752E2  -7.234318276458007   1.643560561568814E2  -7.270377034973356   1.301352716182105E2  -2.113497412183083E1  -6.847010957367186E1  
 1.702689486552567E11   -3.006037819908655E1   1.609095745348457E2  -7.178197472944402   1.391701220748904E2  -7.199522134865868   1.045927908549810E2  -1.977586608335213E1  -9.533511783252510E1  
 1.702811735941320E11   -2.558130971668954E1   1.467355324475401E2  -7.225613067379119   1.139814483621110E2  -7.262799225301949   7.948539343907622E1  -1.969334746242694E1  -1.201449524964643E2  
 1.702933985330073E11   -2.388620759132983E1   1.265768400377388E2  -7.321891623506340   8.989525558805244E1  -7.342331112958118   5.486324370771893E1  -2.093997102948434E1  -1.422079996936371E2  
 1.703056234718826E11   -2.417795121443171E1   1.058725653609876E2  -7.309525775638774   6.592024242957493E1  -7.328133097674231   3.080453832565626E1  -2.403610802968071E1  -1.587798729932375E2  
 1.703178484107579E11   -2.547188144318290E1   9.007807682137164E1  -7.188423326327553   4.153109988357233E1  -7.235829573992708   6.334759238180466  -2.896563495092683E1  -1.535529932359465E2  
 1.703300733496332E11   -2.831321627960490E1   7.633346757506330E1  -7.118055537365311   1.615615099807138E1  -7.141562414842316  -1.927197806401909E1  -2.913613841978178E1  -1.115487598462797E2  
 1.703422982885085E11   -3.395499377765506E1   8.790845117324543E1  -7.082474480669544  -9.016103564422373  -7.114598861655106  -4.437356805468222E1  -2.431137400638594E1  -1.051457567596278E2  
 1.703545232273839E11   -3.140828003731780E1   1.351318061634586E2  -7.139242146043771  -3.424257187878440E1  -7.175212599170344  -6.991431571546805E1  -2.132643627919703E1  -1.180045954930092E2  
 1.703667481662592E11   -2.613463312820078E1   1.334302662170684E2  -7.312815202051193  -5.983907287797631E1  -7.328117258377008  -9.551088636641234E1  -1.970983874549204E1  -1.366050129739853E2  
 1.703789731051345E11   -2.342885707464851E1   1.165275812600119E2  -7.559485513111683  -8.418927431704306E1  -7.578882958246738  -1.200420873162053E2  -1.914372312083676E1  -1.576597011912958E2  
 1.703911980440098E11   -2.171131768377326E1   9.751859290683150E1  -7.780471552221387  -1.073898508284224E2  -7.803563276374715  -1.438227672080824E2  -1.995373951690963E1  -1.795217889935467E2  
 1.704034229828851E11   -2.077648883595165E1   7.482387652724292E1  -7.788202575274922  -1.302899967933435E2  -7.823703448626444  -1.663870074271675E2  -2.186667755631506E1   1.631382321624520E2  
 1.704156479217604E11   -2.068934472869562E1   4.901252783882937E1  -7.677990293993994  -1.539946882350947E2  -7.698968363547748   1.697425989255003E2  -2.437541216506596E1   1.491753645901087E2  
 1.704278728606357E11   -2.158822735540479E1   1.970195516983424E1  -7.544020301103376  -1.784287251151741E2  -7.581735549451486   1.453543451590199E2  -2.769562122317988E1   1.448198654725253E2  
 1.704400977995110E11   -2.366415607112583E1  -1.405007434676738E1  -7.449769952618192   1.568004254519486E2  -7.502367970931819   1.206219070075358E2  -3.039142719339198E1   1.508141018578827E2  
 1.704523227383863E11   -2.694269496522425E1  -5.553732863177724E1  -7.460177163952204   1.312828133645313E2  -7.487977610972073   9.510148566510800E1  -3.099829565186591E1   1.547562746158865E2  
 1.704645476772616E11   -3.091625662904340E1  -1.170430238359887E2  -7.591586836746129   1.060956014726906E2  -7.635074041533621   7.025281601095138E1  -3.098117867687187E1   1.515583777495837E2  
 1.704767726161369E11   -3.122407727666384E1   1.660191579543896E2  -7.772656917275647   8.204266846397816E1  -7.811681925184455   4.666719902612246E1  -3.080576250768572E1   1.319899004280555E2  
 1.704889975550122E11   -2.957789794319006E1   1.106563937672493E2  -7.764241439788282   5.913155761570758E1  -7.803125733167909   2.341335253582929E1  -3.332260862946346E1   8.570858460920776E1  
 1.705012224938875E11   -2.856669490055986E1   6.502627834315221E1  -7.625172946963561   3.500729243892293E1  -7.674803912224780  -4.845402206560342E-1  -3.472385294387513E1   1.804555729836840E1  
 1.705134474327628E11   -2.849138851829279E1   1.521757962057140E1  -7.481671698196258   1.009912639042290E1  -7.517353603697869  -2.528460894631323E1  -3.131001855619766E1  -4.154235425584221E1  
 1.705256723716381E11   -2.865229809922508E1  -4.085467505062041E1  -7.417782289767238  -1.525097815892835E1  -7.448718138407182  -5.083934349086169E1  -2.803143723678145E1  -8.332590260379550E1  
 1.705378973105134E11   -2.721566319634966E1  -9.593344296691748E1  -7.425574356770849  -4.070816811121238E1  -7.476122207209069  -7.611143162444047E1  -2.616729138679094E1  -1.158558789093391E2  
 1.705501222493887E11   -2.522273906195619E1  -1.404674673754572E2  -7.620111411409161  -6.668676330236632E1  -7.680128166964590  -1.012967756584323E2  -2.569060320999757E1  -1.461528165522828E2  
 1.705623471882640E11   -2.397170201829578E1  -1.753532510603591E2  -7.933893748007534  -9.107959600096292E1  -8.011551188435968  -1.259692618194895E2  -2.589691159814241E1  -1.761984954016735E2  
 1.705745721271393E11   -2.321689294887823E1   1.611481877924480E2  -8.119570477925647  -1.133214955455925E2  -8.159273782152846  -1.479878639232502E2  -2.734179757858787E1   1.464582855130398E2  
 1.705867970660147E11   -2.255484130724317E1   1.388135987080172E2  -8.048424336728022  -1.362601637640360E2  -8.094886346882793  -1.709869139991936E2  -2.942861279966393E1   9.515485035387098E1  
 1.705990220048900E11   -2.306282699894980E1   1.168578338896800E2  -7.925553021583235  -1.602361487738553E2  -7.956122416440624   1.652432145033523E2  -2.987969238275215E1   3.386113227130846E1  
 1.706112469437653E11   -2.496727309595750E1   1.036728559363987E2  -7.753034867645512   1.760350661177743E2  -7.825941065368344   1.413554864326254E2  -2.758380589963042E1  -1.939420770748813E1  
 1.706234718826406E11   -2.692768791009373E1   1.082680435323993E2  -7.619054996993465   1.506112165046050E2  -7.645697729291357   1.168926583340289E2  -2.522942170676785E1  -5.788390706040814E1  
 1.706356968215159E11   -2.593881163776830E1   1.185609963653066E2  -7.556099355877272   1.253132865874941E2  -7.611628254121646   9.172420709331094E1  -2.387833634581347E1  -8.891163505394891E1  
 1.706479217603912E11   -2.353237886882902E1   1.177584407959803E2  -7.634546763567702   1.000514195235801E2  -7.672428046369891   6.698800554932006E1  -2.444515954266265E1  -1.192233217389166E2  
 1.706601466992665E11   -2.166805794730944E1   1.073758866464464E2  -7.713126394098555   7.580701136560720E1  -7.749340072705771   4.289282133467592E1  -2.767085699726396E1  -1.370824451033385E2  
 1.706723716381418E11   -2.036675598961146E1   9.150276570359840E1  -7.684764491642333   5.147658537286546E1  -7.721324914015959   1.849324972649143E1  -2.968485968475184E1  -1.244029749799315E2  
 1.706845965770171E11   -2.020101505868931E1   7.320353343370535E1  -7.684616402044600   2.737744343555721E1  -7.705225071626785  -5.882781182294820  -2.825918523255417E1  -1.182475807993812E2  
 1.706968215158924E11   -2.102910770736383E1   5.527223840473044E1  -7.658113514144041   2.804486100469835  -7.712534282846353  -3.029625852831583E1  -2.671622440657040E1  -1.219252253530821E2  
 1.707090464547677E11   -2.347088889270094E1   3.943651074855305E1  -7.658618380862411  -2.206983857939998E1  -7.717326759575668  -5.450893291982417E1  -2.550792043788812E1  -1.277196290483584E2  
 1.707212713936430E11   -2.766375688472827E1   3.895689904616413E1  -7.673765614831289  -4.623676595275321E1  -7.726155829604227  -7.945906083946989E1  -2.396277374004880E1  -1.357363866597578E2  
 1.707334963325183E11   -2.912243066328633E1   7.503995334471223E1  -7.792622775703471  -7.140522932999815E1  -7.841005936096332  -1.034299835330333E2  -2.248080625296079E1  -1.512214641795269E2  
 1.707457212713937E11   -2.485976185540165E1   8.333058192452504E1  -7.903367012249023  -9.437041122023580E1  -7.946490108535239  -1.269145106451829E2  -2.221600036942103E1  -1.710031516561559E2  
 1.707579462102690E11   -2.252908956988893E1   7.461119216346387E1  -7.732900827762695  -1.171010071313018E2  -7.801533130445716  -1.496452026651017E2  -2.249274039225624E1   1.716916011715626E2  
 1.707701711491443E11   -2.107395704587405E1   6.047573470580264E1  -7.536960974424323  -1.417122049003608E2  -7.589485154907893  -1.744024447820973E2  -2.295895573324138E1   1.515374819764328E2  
 1.707823960880196E11   -2.079717788937185E1   4.292566555283941E1  -7.376500793730404  -1.670646430530082E2  -7.400568918452469   1.609313621890155E2  -2.432584841797865E1   1.302472754998448E2  
 1.707946210268949E11   -2.188610647878014E1   2.574785147888311E1  -7.265998302499479   1.677315679264841E2  -7.305899531443004   1.356160099334049E2  -2.695186116468967E1   1.101943614529829E2  
 1.708068459657702E11   -2.460113474380612E1   1.333116309910671E1  -7.290333692160217   1.422938218882290E2  -7.327688897571567   1.099129720075283E2  -3.033959482088569E1   9.360152809050328E1  
 1.708190709046455E11   -2.909027547919044E1   2.097266012263607E1  -7.408632362281447   1.171324245027281E2  -7.460125943974001   8.479474825854472E1  -3.398968831584950E1   9.287582702343630E1  
 1.708312958435208E11   -2.851479854863810E1   5.645975073938778E1  -7.564011371103667   9.281300310425414E1  -7.621193251983856   6.103836641305975E1  -3.386904026833026E1   8.226796728514944E1  
 1.708435207823961E11   -2.466970600264074E1   6.303208019209788E1  -7.550962937678112   6.921640156892501E1  -7.594678698886274   3.763062936260488E1  -3.632567277597290E1   2.672087985678900E1  
 1.708557457212714E11   -2.198240933658762E1   5.265020350458532E1  -7.409513360675073   4.467081143313427E1  -7.458908207057977   1.329297502365592E1  -4.246759453327535E1  -3.621699006198814E1  
 1.708679706601467E11   -2.090158787098310E1   3.745842611538537E1  -7.353394774887092   1.970154781170710E1  -7.385323223399664  -1.195673168604097E1  -4.963464857590101E1  -8.926990896437849E1  
 1.708801955990220E11   -2.107806415269401E1   2.248305697926007E1  -7.316058451995802  -5.070830183994854  -7.343534290309244  -3.728187280541149E1  -4.434719151510539E1  -4.607712107972672E1  
 1.708924205378973E11   -2.197153555733398E1   1.120590765266663E1  -7.367417805301568  -3.021319090227470E1  -7.447288494513021  -6.245876411757772E1  -3.630807046848047E1  -7.359522718836276E1  
 1.709046454767726E11   -2.322611000696518E1   4.617946354307369  -7.538208921041088  -5.494361142746268E1  -7.602922480003009  -8.746057798324316E1  -3.129980575482000E1  -1.086327042758178E2  
 1.709168704156479E11   -2.470441921541170E1   9.899785108755801E-1  -7.777460434266642  -7.916257027673518E1  -7.803300749901410  -1.114605581386716E2  -3.003993926769882E1  -1.510954432003594E2  
 1.709290953545232E11   -2.684194081946044E1   9.972564486549670  -7.793202340251598  -1.018093204924562E2  -7.852713359796653  -1.343036877980034E2  -3.258274877310123E1  -1.746352190986500E2  
 1.709413202933985E11   -2.553255231092874E1   3.033683998139195E1  -7.653450872081612  -1.251619809895250E2  -7.710761282751984  -1.579156405330136E2  -3.253144992718139E1  -1.742427299114640E2  
 1.709535452322738E11   -2.241510175253946E1   2.822457550096136E1  -7.496598803692427  -1.495655725623288E2  -7.553459889380178   1.776601580061438E2  -3.105354551865363E1   1.680964080839164E2  
 1.709657701711491E11   -2.053348241498274E1   1.524998831551075E1  -7.393555806312452  -1.741554495926192E2  -7.425988197591090   1.529268477431865E2  -3.078066691594975E1   1.451838791707843E2  
 1.709779951100244E11   -2.002478889785556E1  -1.109596801241493  -7.319942730939393   1.607208420965222E2  -7.392874251400262   1.273797268615081E2  -3.158032585542118E1   1.191114000269933E2  
 1.709902200488998E11   -2.039722541402578E1  -1.581848075124733E1  -7.356276328972294   1.358658136820923E2  -7.460802347113741   1.021486854123217E2  -3.426809120597382E1   9.879280845819123E1  
 1.710024449877751E11   -2.181919800324434E1  -2.791399232421068E1  -7.473725592116349   1.116749178853901E2  -7.509559266298986   7.726103412901769E1  -3.421843000003274E1   9.973306389803386E1  
 1.710146699266504E11   -2.425484177564198E1  -3.115645362831788E1  -7.476824629768578   8.771520437108966E1  -7.557997125015591   5.374685213575114E1  -3.168574762103049E1   6.147324176354164E1  
 1.710268948655257E11   -2.525282692428675E1  -1.906723415667340E1  -7.361665333678049   6.366619587428254E1  -7.437380877579243   2.895357571210039E1  -3.248683200472890E1  -3.870381956282359  
 1.710391198044010E11   -2.338612692618069E1  -1.314374654416255E1  -7.267398800411614   3.875084553125267E1  -7.361494685807737   3.965557246978757  -3.339035565332209E1  -7.573699381726397E1  
 1.710513447432763E11   -2.130591964173445E1  -2.119422190342643E1  -7.259199954899967   1.405235438935269E1  -7.336282099745546  -2.077770314835416E1  -3.202906453977037E1  -1.318495638547616E2  
 1.710635696821516E11   -2.011707563452569E1  -3.691074780620341E1  -7.290159469835264  -1.165041166099997E1  -7.346641016802898  -4.666883835536705E1  -3.020012508855934E1  -1.706999353739503E2  
 1.710757946210269E11   -1.985768618084802E1  -5.430759342404709E1  -7.418598614447442  -3.695998629198275E1  -7.496518714436760  -7.177681191263061E1  -2.875292727070502E1   1.640299290314979E2  
 1.710880195599022E11   -2.011165220257609E1  -7.277361960129947E1  -7.695280304644676  -6.122640760153543E1  -7.770567457299848  -9.587445141314873E1  -2.643359046673321E1   1.435755518404456E2  
 1.711002444987775E11   -2.050023348526598E1  -9.387761991203145E1  -7.903648676951613  -8.337357853743161E1  -7.985412330315136  -1.188606017185342E2  -2.448886759810834E1   1.128425601821535E2  
 1.711124694376528E11   -2.149305146654093E1  -1.203880014743878E2  -7.741608028811524  -1.056535260428216E2  -7.811521599196742  -1.413883056672073E2  -2.450801235184089E1   8.603585458266417E1  
 1.711246943765281E11   -2.372690624837739E1  -1.505489936706520E2  -7.535844098504795  -1.294731536747942E2  -7.582457843957071  -1.652386733371631E2  -2.491193101259985E1   6.841585921336434E1  
 1.711369193154034E11   -2.653880814544516E1   1.783030677420824E2  -7.327168313035857  -1.544498207218296E2  -7.383690632816196   1.699473958405095E2  -2.448035690109498E1   5.256241031787852E1  
 1.711491442542787E11   -2.945540667163096E1   1.424669863875856E2  -7.226188283186701  -1.791109550882105E2  -7.271794466693152   1.448764416873356E2  -2.424755285001279E1   3.452326034646212E1  
 1.711613691931540E11   -3.142006053490340E1   1.088207241833739E2  -7.172687971534751   1.554206970792849E2  -7.209183452385528   1.191971366693697E2  -2.475067393584274E1   1.247187283900759E1  
 1.711735941320293E11   -3.335376831853752E1   7.520998738744164E1  -7.249080647960530   1.303430798631474E2  -7.294280415872159   9.400430252749351E1  -2.662059915973336E1  -4.865645619660332  
 1.711858190709046E11   -3.542963006322323E1   6.199531656677223E1  -7.303159832998968   1.058477909208345E2  -7.341016639201845   6.983719062446788E1  -2.824602228892858E1  -8.254039719975966  
 1.711980440097799E11   -3.540155984065735E1   7.527153299953133E1  -7.279942531380437   8.191784600955913E1  -7.305109899023936   4.553406944752231E1  -2.695593951979479E1  -2.037155222873081E1  
 1.712102689486552E11   -3.138498845920718E1   7.554504927084825E1  -7.200003773980825   5.722259476397144E1  -7.256736106007711   2.115642742703115E1  -2.800310502316435E1  -5.197810307446733E1  
 1.712224938875306E11   -2.824741348575611E1   6.306241501675395E1  -7.148331198185971   3.248341562777051E1  -7.192439594791493  -4.437561029800189  -3.195508373394381E1  -9.056134069804827E1  
 1.712347188264059E11   -2.688598119541198E1   4.559226029778611E1  -7.166795840524320   7.186698720926612  -7.216877542523992  -2.935662582595472E1  -3.693135091223871E1  -1.595466751698895E2  
 1.712469437652812E11   -2.633303746276580E1   3.073834803416595E1  -7.246712514852262  -1.796014211967077E1  -7.252617229589307  -5.449650817588341E1  -3.490933092093721E1   1.158569015155959E2  
 1.712591687041565E11   -2.660065162348075E1   2.090049613845528E1  -7.353204082579205  -4.274924306629148E1  -7.402243733247808  -7.922035829304450E1  -3.091640130789414E1   8.201092366512400E1  
 1.712713936430318E11   -2.680552338092683E1   1.311971987476955E1  -7.550959942898844  -6.661349598526583E1  -7.574081249532281  -1.031631714294620E2  -2.732116533543617E1   5.883772880595900E1  
 1.712836185819071E11   -2.734997375930793E1   9.150083455986604  -7.582126701866544  -8.933809962733857E1  -7.623297612566025  -1.262534108201504E2  -2.484201667713906E1   2.931743201463332E1  
 1.712958435207824E11   -2.773453537010990E1   1.321255986601044E1  -7.421659760507554  -1.132298796025685E2  -7.449015438207925  -1.499875685745489E2  -2.548317285421884E1  -2.909266096100215  
 1.713080684596577E11   -2.661890214913696E1   1.244957440858266E1  -7.310745861814507  -1.383235152836176E2  -7.355302200637349  -1.745095022232272E2  -2.857242029120701E1  -2.749746459478741E1  
 1.713202933985330E11   -2.591237863676187E1   6.238719941381693  -7.251694691520167  -1.635002367295269E2  -7.264928187888788   1.602261669801272E2  -3.475020313185203E1  -3.186874053570140E1  
 1.713325183374083E11   -2.611538212455456E1  -2.002153171625145  -7.241081205706321   1.713459107350306E2  -7.287032108961555   1.354549954037752E2  -3.842568923669035E1   3.045140591466879E1  
 1.713447432762836E11   -2.661504212533520E1  -4.743307072121085  -7.324651987514018   1.461513018258100E2  -7.350408141766602   1.109723563900355E2  -3.195901749577405E1   5.409031382789857E1  
 1.713569682151589E11   -2.654083353675943E1  -9.521881718298131  -7.426768983971304   1.222335083809935E2  -7.471030385315554   8.673650489366189E1  -2.697510425330382E1   5.138603656297597E1  
 1.713691931540342E11   -2.793237900021540E1  -1.601620476975806E1  -7.376473758078803   9.846120934184097E1  -7.413899489558859   6.285045149031203E1  -2.315204500009975E1   2.878341291810636E1  
 1.713814180929096E11   -3.031211153245249E1  -1.407047711751405  -7.279990371912979   7.360450299146804E1  -7.316170444971826   3.857421759652252E1  -2.236194383200944E1   1.827007611575845  
 1.713936430317849E11   -2.791558871566969E1   2.238725501960863E1  -7.256438571785399   4.831965460516035E1  -7.259215449900193   1.340053757976302E1  -2.367831999640166E1  -2.068173639080669E1  
 1.714058679706602E11   -2.447111232093246E1   2.201675743457197E1  -7.268447533219479   2.331691096145379E1  -7.292205066387335  -1.108269035627098E1  -2.735495788613509E1  -3.038373776201743E1  
 1.714180929095355E11   -2.216192071654823E1   1.286418438550907E1  -7.359384966147449  -1.723328883414232  -7.366327227784741  -3.597876937531161E1  -3.071380791994682E1  -5.963309307906984  
 1.714303178484108E11   -2.063329611466238E1   1.586419532454859  -7.465518761760255  -2.601544533170390E1  -7.485332067516490  -6.074824503866330E1  -2.788695969141540E1   1.436605493318620E1  
 1.714425427872861E11   -1.954262704172644E1  -1.132030836239026E1  -7.567431742889180  -5.025988250440826E1  -7.594628110065697  -8.406707253245001E1  -2.524066377719071E1   1.728875146839795E1  
 1.714547677261614E11   -1.917679835268818E1  -2.653955456490016E1  -7.603847857705296  -7.404646773687117E1  -7.629288042464410  -1.073299757234666E2  -2.184955844388186E1   1.227965334988598E1  
 1.714669926650367E11   -1.933359357362122E1  -4.057571978102915E1  -7.502563803948927  -9.729664034905038E1  -7.529347597880187  -1.309594546648371E2  -1.921195179153506E1  -5.058815993836027  
 1.714792176039120E11   -2.000497203376176E1  -5.238833745696871E1  -7.352906133837270  -1.214947587639836E2  -7.387914751827204  -1.554122471113232E2  -1.820864923974141E1  -2.795242345941981E1  
 1.714914425427873E11   -2.068412066224071E1  -6.239034489900949E1  -7.279027183786102  -1.463526385282756E2  -7.298874509408052  -1.796350052443498E2  -1.849629236890305E1  -5.070937151232061E1  
 1.715036674816626E11   -2.169058551429242E1  -7.230075180559690E1  -7.226366929435225  -1.716590739067229E2  -7.244777814419739   1.552794256538426E2  -1.991051119572597E1  -7.319329570366502E1  
 1.715158924205379E11   -2.326278449707489E1  -7.919204819237150E1  -7.227641786378568   1.634032266122185E2  -7.226825566324818   1.306366843777823E2  -2.271352310509926E1  -9.431851723841237E1  
 1.715281173594132E11   -2.450039428035190E1  -7.944564018353390E1  -7.277228664227715   1.390225031477712E2  -7.298522646638488   1.059197328888098E2  -2.832877185774906E1  -1.176853444867262E2  
 1.715403422982885E11   -2.459495061905197E1  -8.327888297210153E1  -7.321836302458548   1.147115482786963E2  -7.327591400951276   8.151794330878136E1  -4.890228521806861E1   1.896297474625192E1  
 1.715525672371638E11   -2.527064223946871E1  -9.469225407517502E1  -7.272699884850479   9.044567001413525E1  -7.268808432861053   5.796279285763644E1  -2.730604566965333E1   6.234714768572013E-1  
 1.715647921760391E11   -2.756188225533961E1  -1.075641939683091E2  -7.171884392449572   6.599758174530747E1  -7.186743263585703   3.338538017600712E1  -2.386541247906316E1  -2.474530852262713E1  
 1.715770171149144E11   -3.200394181795389E1  -1.159508298264176E2  -7.101192887828733   4.104007463214894E1  -7.072923098101670   8.355891829228959  -2.358966677514201E1  -4.899404822665414E1  
 1.715892420537897E11   -4.114505808269537E1  -1.055304955519011E2  -7.051577253716640   1.613074297178265E1  -7.042734949851225  -1.698718817427504E1  -2.539956729629943E1  -6.931776126844834E1  
 1.716014669926650E11   -3.669726790936015E1   6.305918464215308  -7.103974553656158  -9.316697377662139  -7.117583557517747  -4.150417265815908E1  -3.072677089715582E1  -8.214380615384913E1  
 1.716136919315403E11   -2.785925716476464E1  -4.447599187200531E-1  -7.216358164958050  -3.394646533118191E1  -7.211088495306115  -6.642124318857313E1  -4.069551587563316E1  -1.804740773438687E1  
 1.716259168704157E11   -2.347289366141947E1  -2.301897028376626E1  -7.311732426150747  -5.804768774083687E1  -7.313432824484147  -9.028216340234141E1  -2.827804585825599E1   2.750809971686515E1  
 1.716381418092910E11   -2.150285843981180E1  -4.864331909017008E1  -7.291046801606636  -8.160887859955044E1  -7.301557034448845  -1.142756051615996E2  -2.231824816768268E1   7.792279372451156  
 1.716503667481663E11   -2.106437818825722E1  -7.267555912073262E1  -7.231609045853083  -1.062899297532657E2  -7.227241252214724  -1.383786304586186E2  -1.955816317578279E1  -1.403024400127800E1  
 1.716625916870416E11   -2.165361290957186E1  -9.649259432044261E1  -7.129323245340343  -1.307509035079349E2  -7.125164327935460  -1.624230402959346E2  -1.847634998416509E1  -3.525764864326930E1  
 1.716748166259169E11   -2.322142274206431E1  -1.199222071293367E2  -7.075092908901054  -1.555293631454827E2  -7.071980279967769   1.725044734309217E2  -1.850097269909785E1  -5.751881882873047E1  
 1.716870415647922E11   -2.556295068449125E1  -1.461426119173065E2  -7.065161332048169   1.792638889837284E2  -7.067322295681690   1.473870636302232E2  -1.964032692394283E1  -7.720403072596545E1  
 1.716992665036675E11   -2.969783960978775E1   1.770637758550705E2  -7.134577779563794   1.544346590138204E2  -7.132183390607907   1.224429822871753E2  -2.221812604589091E1  -9.492898483232844E1  
 1.717114914425428E11   -3.541896812180563E1   1.058652397381177E2  -7.204015978950794   1.302831241053781E2  -7.194848468251713   9.797005228932787E1  -2.738064938678372E1  -9.979643029404265E1  
 1.717237163814181E11   -3.318604277851703E1   1.958490168546128E1  -7.209291420062655   1.064126345559926E2  -7.200872737507107   7.417580496219497E1  -2.982922056568559E1  -5.549431311881131E1  
 1.717359413202934E11   -3.107802104251866E1  -2.330565330238118E1  -7.147036388675874   8.233719909471606E1  -7.119158709984752   5.034745041631625E1  -2.474958256517465E1  -4.695538908022873E1  
 1.717481662591687E11   -3.147935215555033E1  -4.353765793516896E1  -7.055744539377121   5.783247356491049E1  -7.041159579890222   2.542283289828807E1  -2.249903073610065E1  -6.228701846135927E1  
 1.717603911980440E11   -3.369026466820040E1  -5.285918866878866E1  -6.987429100540894   3.304625538560637E1  -6.979264386277451   8.692430345351891E-1  -2.245460651586191E1  -8.155087043425067E1  
 1.717726161369193E11   -3.681964206442348E1  -3.268462247701483E1  -6.976748951900762   7.802597994553720  -6.945227241468849  -2.418301760284644E1  -2.406949516414048E1  -1.005636262634994E2  
 1.717848410757946E11   -3.314621922497388E1   7.095373961712207E-1  -6.989295004048352  -1.662808752449093E1  -6.986555460897555  -4.916218823072000E1  -2.797532028954931E1  -1.174551927978441E2  
 1.717970660146699E11   -2.778685405555340E1   3.811499724484253E-1  -7.037809777757824  -4.151848159152942E1  -7.045788624161854  -7.405916711050330E1  -4.018114039455207E1  -1.086284766866455E2  
 1.718092909535452E11   -2.471917064684983E1  -1.643586113678689E1  -7.076278192105610  -6.611191100082753E1  -7.084994751465589  -9.823568130683825E1  -3.138931299917832E1  -1.899804141131177  
 1.718215158924205E11   -2.339007341368388E1  -3.514637317455462E1  -7.036379450550788  -8.990212858726197E1  -7.036498727765792  -1.224553973260351E2  -2.436679968845157E1  -1.961145438339412E1  
 1.718337408312958E11   -2.335446527405500E1  -5.050331253761951E1  -6.967434955657826  -1.146663882000221E2  -6.988160218994611  -1.468958389949110E2  -2.167474173862074E1  -4.273754312328845E1  
 1.718459657701711E11   -2.397997807038055E1  -6.268419073364166E1  -6.940107678753917  -1.394341557760200E2  -6.946164523715090  -1.720653681074725E2  -2.096876239268971E1  -6.672061076788964E1  
 1.718581907090465E11   -2.523571554767390E1  -7.059600161470317E1  -6.942739472263408  -1.645027949856365E2  -6.947418281768933   1.629443989290747E2  -2.187553850863251E1  -9.020350100667416E1  
 1.718704156479218E11   -2.662821110679685E1  -6.790981074439287E1  -7.007926315335563   1.706713168791599E2  -7.025096924668778   1.373785956371449E2  -2.459296034605090E1  -1.135959507294976E2  
 1.718826405867971E11   -2.589338250674883E1  -5.574089192468634E1  -7.135387153914349   1.458629673101182E2  -7.188353721986365   1.126928628645138E2  -3.111930037649468E1  -1.398949068710701E2  
 1.718948655256724E11   -2.329035702445780E1  -5.675649622910722E1  -7.243493606014589   1.220718154599858E2  -7.286622199966915   8.870612825407041E1  -3.768233384788717E1   5.526171742006796E1  
 1.719070904645477E11   -2.150912101700967E1  -7.071023157877998E1  -7.292159602984582   9.851638769719992E1  -7.297765212476932   6.514983373884053E1  -2.547361127842853E1   1.002898514465644E1  
 1.719193154034230E11   -2.069301633739240E1  -8.702515402195854E1  -7.231126896699312   7.480599768563367E1  -7.263982591144367   4.091505146833821E1  -2.119418794736712E1  -1.619632350435863E1  
 1.719315403422983E11   -2.062437714230803E1  -1.056353266901727E2  -7.172042134534487   5.036979344672302E1  -7.167201698354996   1.665829460284541E1  -1.919436732092260E1  -3.968151745963946E1  
 1.719437652811736E11   -2.123480522373410E1  -1.257031315314669E2  -7.076962793638757   2.600432896905338E1  -7.088684163091750  -7.718371004074979  -1.869117090156544E1  -6.207077091060607E1  
 1.719559902200489E11   -2.285099925967031E1  -1.493443461804252E2  -7.067578392133395   1.751786026226316  -7.058260078804357  -3.254848063340972E1  -1.935717388358549E1  -8.278992306086872E1  
 1.719682151589242E11   -2.636229674974707E1  -1.777142209784161E2  -7.028937672646722  -2.279872690723634E1  -7.024315777648619  -5.742857081576339E1  -2.164980336218582E1  -9.888190130489998E1  
 1.719804400977995E11   -3.364532832063191E1   1.392383518929059E2  -6.978763754999788  -4.739351578303732E1  -6.989120806430936  -8.203043028991223E1  -2.550919546118349E1  -1.003057262784177E2  
 1.719926650366748E11   -3.689034750234195E1   2.233697225812419E1  -6.931486279095890  -7.178104018643629E1  -6.938149390485147  -1.069220191349794E2  -2.688307119067832E1  -7.419423103854773E1  
 1.720048899755501E11   -2.924345428303787E1  -3.065740414360316E1  -6.919684986009703  -9.655811413869044E1  -6.905723514466864  -1.317151583550343E2  -2.349016156483956E1  -6.201649067455605E1  
 1.720171149144254E11   -2.598929689821979E1  -5.737864168362897E1  -6.912770003789000  -1.214981426702520E2  -6.908717194124567  -1.564367938354770E2  -2.080677050356533E1  -7.430884178748025E1  
 1.720293398533007E11   -2.488566570042175E1  -8.031901724705531E1  -6.910732790898671  -1.464677554424457E2  -6.928173830006707   1.784809601322209E2  -1.960417907295557E1  -9.443998112222806E1  
 1.720415647921760E11   -2.502878244988180E1  -9.958871058390864E1  -6.898874261824147  -1.707562998173116E2  -6.929197871623442   1.537129217346229E2  -1.991093279049529E1  -1.181912682876874E2  
 1.720537897310513E11   -2.694231409314547E1  -1.124232444634241E2  -6.942174594522261   1.642265031228151E2  -6.944588736589609   1.286638682000275E2  -2.188833420095697E1  -1.447690082134374E2  
 1.720660146699266E11   -2.934447040850247E1  -1.095148916876053E2  -6.944845589687424   1.396355347700605E2  -6.948506490562113   1.039063418959413E2  -2.562482436542004E1  -1.765971334338194E2  
 1.720782396088019E11   -2.880136463139856E1  -9.386596798764106E1  -6.995410429227053   1.148295371727328E2  -6.988705879918944   7.883698872843887E1  -3.307625670864616E1   1.161210984676092E2  
 1.720904645476773E11   -2.629513682072967E1  -9.234541250937244E1  -7.066575546145253   8.977488052098249E1  -7.076673583925771   5.390654240356931E1  -2.918377758893980E1   1.463797408669848E1  
 1.721026894865526E11   -2.401679644545308E1  -1.027467429605068E2  -7.190967449203182   6.564583176376753E1  -7.178918052970017   2.949035110104392E1  -2.402551939873630E1  -2.561660089751958E1  
 1.721149144254279E11   -2.276434919899775E1  -1.198249219048275E2  -7.273869123601537   4.135365239466794E1  -7.268856508347430   5.170879963061638  -2.176537605060680E1  -5.415434261699771E1  
 1.721271393643032E11   -2.218472867196770E1  -1.430297482589720E2  -7.331802400291527   1.737313613944297E1  -7.323921360972607  -1.916480963629719E1  -2.105401645956284E1  -7.875359536956601E1  
 1.721393643031785E11   -2.301768822311554E1  -1.723672189363671E2  -7.385164363565345  -6.372662413476443  -7.383960973073189  -4.291035440987020E1  -2.176323682311903E1  -1.033670995826225E2  
 1.721515892420538E11   -2.559595219523505E1   1.505316322937056E2  -7.352218272236139  -2.976705366178115E1  -7.331421971384996  -6.679002317535250E1  -2.458301370132589E1  -1.247462440774326E2  
 1.721638141809291E11   -3.062784722092984E1   1.006096845251456E2  -7.194021396345315  -5.389929973400358E1  -7.219545982667131  -9.078979667406253E1  -3.078640902436112E1  -1.366091058242849E2  
 1.721760391198044E11   -3.284142890552963E1   1.094694338172961E1  -7.066322815255218  -7.810114256892203E1  -7.064007953871517  -1.152523805822073E2  -3.615101361221395E1  -6.356061674635335E1  
 1.721882640586797E11   -2.888926875708440E1  -4.876411652969008E1  -6.957138648584717  -1.032266725280400E2  -6.968310932402904  -1.403342768250527E2  -2.753403006616498E1  -5.029733561631674E1  
 1.722004889975550E11   -2.636570036250017E1  -8.518958575530036E1  -6.912527919305547  -1.290518878855267E2  -6.951510284357849  -1.653034790486203E2  -2.422266787854786E1  -7.056693822399133E1  
 1.722127139364303E11   -2.538477918595762E1  -1.140139147132295E2  -6.961022668685219  -1.540807641502449E2  -6.982252254564632   1.693615171546764E2  -2.338796784798153E1  -9.544625555298180E1  
 1.722249388753056E11   -2.568939398066374E1  -1.401714399495313E2  -7.075014193957227  -1.790697556812689E2  -7.066229095578309   1.441107676613287E2  -2.498909147080320E1  -1.218156021830946E2  
 1.722371638141809E11   -2.768136926293146E1  -1.696114158524585E2  -7.152388787256980   1.564950497537534E2  -7.154836719791934   1.198275610046257E2  -2.962886753503545E1  -1.570788309339288E2  
 1.722493887530562E11   -3.296238384611600E1   1.553689715831154E2  -7.186690464713150   1.323534034211551E2  -7.189072782315057   9.603402716923186E1  -3.935596116046697E1   1.095260596907734E2  
 1.722616136919315E11   -4.307835448880170E1   3.812439374856439E1  -7.206950058167499   1.075888071292302E2  -7.204074144608477   7.165989014226032E1  -2.846928344369137E1   1.471709985190489E1  
 1.722738386308069E11   -3.066566139632290E1  -4.765993134447628E1  -7.188020657332914   8.334057805506610E1  -7.198124537893922   4.689332577027665E1  -2.275981448762460E1  -1.628000281143045E1  
 1.722860635696822E11   -2.567281580024987E1  -8.088838779408397E1  -7.208741577129476   5.818377455810867E1  -7.225401617758308   2.223375939506096E1  -1.989110019802958E1  -4.194959743869512E1  
 1.722982885085575E11   -2.311248610248859E1  -1.102986366427094E2  -7.281009261528867   3.375030210523963E1  -7.267249221580362  -1.894703950144342  -1.840888242818648E1  -6.696157017158967E1  
 1.723105134474328E11   -2.250123543362339E1  -1.400624404051735E2  -7.338142543737217   9.458429578635631  -7.380714834149307  -2.672623562639981E1  -1.810254535182042E1  -9.260831013486043E1  
 1.723227383863081E11   -2.349216395564046E1  -1.667983268518535E2  -7.379577689064502  -1.470305397344839E1  -7.373498960612445  -4.992189462808908E1  -1.897119909015212E1  -1.183286738753803E2  
 1.723349633251834E11   -2.642434516951636E1   1.709974327741197E2  -7.362450418556326  -3.900416868343881E1  -7.351637667386830  -7.385415021376922E1  -2.105148701750944E1  -1.441835394568489E2  
 1.723471882640587E11   -3.080380211630316E1   1.603237981111668E2  -7.264450013354159  -6.327358641449335E1  -7.269129508429145  -9.739869653610823E1  -2.554758812702492E1  -1.712266644774894E2  
 1.723594132029340E11   -3.679580941517126E1  -1.701345067219332E2  -7.175028247165492  -8.826614782449866E1  -7.155744003376551  -1.217600175038881E2  -3.467126927227199E1   1.410690493682899E2  
 1.723716381418093E11   -3.029941840152570E1  -1.327059375888537E2  -7.128214171914350  -1.133219379275833E2  -7.075321637735881  -1.468122929479498E2  -3.279429249953630E1   5.876870231721038E-1  
 1.723838630806846E11   -2.502005153497376E1  -1.458377649838470E2  -7.130160641413231  -1.379167683020196E2  -7.119750481116514  -1.716561985073715E2  -2.611847946405758E1  -4.277785659328792E1  
 1.723960880195599E11   -2.213401233798350E1  -1.714383360988616E2  -7.188964675579579  -1.633613363136317E2  -7.132246950486279   1.638189527608627E2  -2.381812564371525E1  -7.046544638961650E1  
 1.724083129584352E11   -2.071895761280640E1   1.607095051477029E2  -7.231516262707863   1.725066944653249E2  -7.205007379841695   1.391768342440565E2  -2.429746547555119E1  -9.451847505107625E1  
 1.724205378973105E11   -2.032066242853231E1   1.317740188843380E2  -7.248585827900547   1.476693058968671E2  -7.213091503399108   1.153933744502654E2  -2.642529535080489E1  -1.081484941918937E2  
 1.724327628361858E11   -2.070801255297199E1   1.032453748191073E2  -7.215645653284299   1.237490348180891E2  -7.168722492313854   9.138042822863257E1  -2.975692953423181E1  -1.084732195424206E2  
 1.724449877750611E11   -2.205171210179962E1   7.375954961475216E1  -7.160458532306215   9.927812919497573E1  -7.125359298958575   6.727384110120704E1  -3.201568460342065E1  -8.091964299143395E1  
 1.724572127139364E11   -2.404973804095288E1   4.415068048349051E1  -7.087145340048779   7.416922828628808E1  -7.052308295076427   4.253692770284905E1  -2.870232027892501E1  -6.266465130213970E1  
 1.724694376528117E11   -2.802637747772273E1   1.589475852307292E1  -7.062266408193422   4.852100739224877E1  -7.068140239292876   1.750789270555917E1  -2.557829770311231E1  -7.164971136262410E1  
 1.724816625916870E11   -3.815074427308570E1  -5.914428874891283  -7.118157328224946   2.396429807929975E1  -7.105566038599166  -7.353935929627555  -2.442048799644611E1  -9.133696682415527E1  
 1.724938875305624E11   -3.513590168047976E1   1.056508552047416E2  -7.158944390890671  -6.447905067076695E-1  -7.143398620946376  -3.166159153740973E1  -2.578354360564337E1  -1.131854061696236E2  
 1.725061124694377E11   -2.726381207440763E1   8.244136814002808E1  -7.170542931276716  -2.512284037323456E1  -7.148729688835974  -5.629188359237227E1  -3.064236268636099E1  -1.318696413846568E2  
 1.725183374083130E11   -2.417502857290596E1   5.387843758605636E1  -7.175915128051781  -4.968922073030128E1  -7.135843804699734  -8.039620897460011E1  -4.401829507000962E1  -5.342460841530205E1  
 1.725305623471883E11   -2.277028629459782E1   2.726620832100535E1  -7.121240998794449  -7.425604829356819E1  -7.119030186057592  -1.050551208277820E2  -2.871030795767341E1  -1.670257629892927E1  
 1.725427872860636E11   -2.208540975179107E1  -1.664892456578702  -7.123911000861510  -9.902063797965225E1  -7.092373238215368  -1.297300137707363E2  -2.329310081414527E1  -3.389043768967948E1  
 1.725550122249389E11   -2.232060801611249E1  -2.911364197683528E1  -7.123357480897699  -1.241801616219734E2  -7.091645553163872  -1.544247390209398E2  -2.063554785814806E1  -5.489688328922222E1  
 1.725672371638142E11   -2.390909759365655E1  -5.650328215054631E1  -7.174101452455557  -1.489917228176519E2  -7.164941912801380  -1.795333164561642E2  -1.951950229070896E1  -7.527124004685390E1  
 1.725794621026895E11   -2.706430882352785E1  -8.186459846127048E1  -7.180533162773976  -1.733885512357981E2  -7.173461065510541   1.562751898259862E2  -1.978224074685096E1  -9.733753083760621E1  
 1.725916870415648E11   -3.451330584689428E1  -1.034568717428196E2  -7.171670319257956   1.617257328079631E2  -7.143173820503063   1.318516832673626E2  -2.151122949750095E1  -1.128457907157907E2  
 1.726039119804401E11   -4.003851962380646E1   1.338300799892669E1  -7.158263891038897   1.372715998156411E2  -7.133482107993251   1.067205469594726E2  -2.448357733530234E1  -1.166015847175363E2  
 1.726161369193154E11   -2.820184659713711E1   5.087350689729480  -7.135149420718229   1.124083035843455E2  -7.141504441521935   8.166076580659374E1  -2.594963574421390E1  -1.016863817523889E2  
 1.726283618581907E11   -2.387242704613406E1  -1.498183440290537E1  -7.220035199584797   8.752904812984527E1  -7.226434908377884   5.641068298253147E1  -2.425173005202170E1  -8.812858899458385E1  
 1.726405867970660E11   -2.117627424694666E1  -4.088232020432140E1  -7.291109884574420   6.252758942097516E1  -7.319425449585392   3.195785175536884E1  -2.122130563128573E1  -9.004405881488607E1  
 1.726528117359413E11   -2.014997181103932E1  -6.923577034742263E1  -7.469126034696178   3.790675403608248E1  -7.466928679272900   6.835138449525245  -1.909458022901014E1  -1.041743509896565E2  
 1.726650366748166E11   -2.039700237144876E1  -9.582610521980857E1  -7.586927829712783   1.453906710295362E1  -7.567442866724445  -1.700822933410344E1  -1.803720726378637E1  -1.244037918227883E2  
 1.726772616136919E11   -2.188531327656290E1  -1.210374117364925E2  -7.622595663575432  -9.393291933794208  -7.606299661474538  -4.122858291133320E1  -1.794181268024768E1  -1.475876692794851E2  
 1.726894865525672E11   -2.462064973243684E1  -1.416537579779498E2  -7.572076629380780  -3.365616930317118E1  -7.591833151800730  -6.481746357389527E1  -1.898594205898050E1  -1.716855313966070E2  
 1.727017114914425E11   -2.890711927471189E1  -1.513069919023066E2  -7.544093823294080  -5.767655477339080E1  -7.523723786842625  -8.939871603653870E1  -2.139932418608680E1   1.635508017850885E2  
 1.727139364303178E11   -3.583423835931531E1  -1.343663522264945E2  -7.481082396614759  -8.217742082295825E1  -7.495537511734547  -1.141809631022272E2  -2.549054870622702E1   1.353820902654925E2  
 1.727261613691932E11   -3.287207227926027E1  -7.653514985434551E1  -7.480861324212087  -1.061749820369375E2  -7.438747319509775  -1.392027909478307E2  -3.398498593189995E1   9.412676596652466E1  
 1.727383863080685E11   -2.684786802718184E1  -8.637306330345180E1  -7.524246983527132  -1.312231904411513E2  -7.516400650438514  -1.640263286443088E2  -3.552435905983204E1  -5.475209889895974E1  
 1.727506112469438E11   -2.416033044287366E1  -1.084457312139355E2  -7.618651902811274  -1.553757013238778E2  -7.577734014768831   1.714264246977444E2  -2.790004224333351E1  -1.061219334018482E2  
 1.727628361858191E11   -2.351290562306527E1  -1.351748977351833E2  -7.644999421286912  -1.795035316680795E2  -7.622244459919489   1.466565478777400E2  -2.555042982108452E1  -1.464632226156176E2  
 1.727750611246944E11   -2.448331708338741E1  -1.608682320887503E2  -7.672460115107382   1.561420305362558E2  -7.621750348129937   1.226204969174389E2  -2.641179134577021E1   1.783676467517365E2  
 1.727872860635697E11   -2.776255039290179E1   1.721070099773847E2  -7.625912857909530   1.321296778033365E2  -7.595539049453902   9.792605335258048E1  -2.924234642847707E1   1.410280214268815E2  
 1.727995110024450E11   -3.831101552644267E1   1.287489551581231E2  -7.637180236167778   1.080488697562185E2  -7.576840673564996   7.316197631005962E1  -3.370238406324575E1   1.027740853796990E2  
 1.728117359413203E11   -3.457561045357507E1  -4.913702691342648E1  -7.618060258019688   8.308666399123133E1  -7.597398564924457   4.801299752022675E1  -3.723901790005775E1   1.752548408596218E1  
 1.728239608801956E11   -2.584117665904885E1  -8.471636031739951E1  -7.716309829166216   5.801831740554540E1  -7.707062561362945   2.328761617206200E1  -3.358078083570231E1  -4.812525370630746E1  
 1.728361858190709E11   -2.258851931266588E1  -1.166986408154879E2  -7.834732123620952   3.467912390602646E1  -7.812762486446669  -1.390717949001875  -2.944639924901646E1  -9.630017897648841E1  
 1.728484107579462E11   -2.180412822128373E1  -1.446068280683686E2  -7.865559653715931   1.081330043515914E1  -7.839452732647573  -2.477594811801071E1  -2.827462640114341E1  -1.376524692893904E2  
 1.728606356968215E11   -2.206208858114424E1  -1.666929086395031E2  -7.815180716207708  -1.315891050772370E1  -7.788031999105614  -4.917406772136609E1  -2.783785356530833E1   1.793127954134087E2  
 1.728728606356968E11   -2.287923180436642E1   1.711492502493915E2  -7.794988202177836  -3.720190100968506E1  -7.765455919306232  -7.325192672029957E1  -2.712296969631505E1   1.336381997573941E2  
 1.728850855745721E11   -2.459714795235557E1   1.500692083332194E2  -7.758381729885517  -6.158692828921613E1  -7.775752281248537  -9.745311110233911E1  -2.625862665994972E1   8.722118557939569E1  
 1.728973105134475E11   -2.870324352515153E1   1.279623526845057E2  -7.729718863093139  -8.618480943202778E1  -7.688330579523471  -1.224517408894591E2  -2.534310398470020E1   4.654016494536893E1  
 1.729095354523228E11   -3.773698715921442E1   1.276985785155259E2  -7.672731561484715  -1.104754499256431E2  -7.689098515395146  -1.471702229303033E2  -2.396659584045612E1   1.008163920042534E1  
 1.729217603911981E11   -3.309201491047941E1  -1.536315680675687E2  -7.767583349632495  -1.346188679088928E2  -7.721520066542407  -1.713033818373999E2  -2.400984591331709E1  -2.001387929066966E1  
 1.729339853300734E11   -2.874330490762629E1  -1.691169771564455E2  -7.710711025071813  -1.582767602285613E2  -7.708828620793210   1.641724969333028E2  -2.502911509816423E1  -4.623103669060441E1  
 1.729462102689487E11   -2.696410081617853E1   1.761150929714827E2  -7.546350247252134   1.773159267201443E2  -7.578426615772244   1.398346737460810E2  -2.611267749494841E1  -6.394904770408576E1  
 1.729584352078240E11   -2.636970721455527E1   1.580552028202332E2  -7.473616345810292   1.523412248986847E2  -7.452661746797413   1.146561723186046E2  -2.810232323476719E1  -7.914395632937259E1  
 1.729706601466993E11   -2.764029426844072E1   1.390401466401873E2  -7.464552899333526   1.270189777826280E2  -7.447218235268290   8.921715514376655E1  -3.157551410378017E1  -8.664572830461674E1  
 1.729828850855746E11   -3.010051798460590E1   1.232654680382468E2  -7.491672090233976   1.016999992916209E2  -7.469240370882967   6.429128490400709E1  -3.548647316826064E1  -7.860082201938509E1  
 1.729951100244499E11   -3.795995870513360E1   1.450635660915171E2  -7.555323310429422   7.616546705557987E1  -7.552203035792528   3.865730991222455E1  -3.500808763143964E1  -3.713595193462682E1  
 1.730073349633252E11   -3.061204581413385E1  -1.719772083240951E2  -7.723712128541626   5.114658674223195E1  -7.773465989320383   1.399489084428753E1  -3.062855865333728E1  -4.208914393477989E1  
 1.730195599022005E11   -2.628746709982810E1   1.623814033254242E2  -7.922161546617009   2.798945871653558E1  -7.897075322856312  -9.169932572158919  -3.207399203364142E1  -6.532654786348397E1  
 1.730317848410758E11   -2.462140300651144E1   1.420147835808605E2  -7.855578948366188   4.050725892972439  -7.822353773128207  -3.325626480640017E1  -3.805515997271439E1  -3.364614914281115E1  
 1.730440097799511E11   -2.403091090362283E1   1.217551557222370E2  -7.824041657266474  -2.076151335856045E1  -7.827589618131888  -5.768382891815062E1  -3.023577924741204E1  -1.352467564074911  
 1.730562347188264E11   -2.447990235557464E1   1.012096337934126E2  -7.849011860643806  -4.473672284395016E1  -7.828551558446656  -8.225915755016044E1  -2.605318493407714E1  -1.632621312087651E1  
 1.730684596577017E11   -2.521377222540955E1   7.815997334039645E1  -7.798897831044227  -6.925453938196552E1  -7.853638715334079  -1.056664669765568E2  -2.467784910355638E1  -3.561342893328639E1  
 1.730806845965770E11   -2.761482411379434E1   5.214664144449028E1  -7.810903981258581  -9.398029200861866E1  -7.794695486211899  -1.306102659411291E2  -2.501019977479163E1  -4.616148970260255E1  
 1.730929095354523E11   -3.219639656743255E1   2.277709555005961E1  -7.864304528260360  -1.186121844646909E2  -7.845731007740614  -1.551997113643016E2  -2.465371766231355E1  -5.549347792954186E1  
 1.731051344743276E11   -4.896633015339152E1  -7.045363326909205E1  -7.896203906817676  -1.429740400827961E2  -7.869392924278669  -1.792776031075916E2  -2.557259584402381E1  -7.047916124676027E1  
 1.731173594132029E11   -3.389552914410533E1   1.728420493748413E2  -7.805113425992460  -1.680334658236680E2  -7.819982876166738   1.567617598871721E2  -2.886623242260591E1  -6.720914075461472E1  
 1.731295843520783E11   -2.763443045746817E1   1.414160247250004E2  -7.794292864314722   1.668420342551967E2  -7.778055852424082   1.317699587513601E2  -2.795730401967313E1  -3.985014153592740E1  
 1.731418092909536E11   -2.420634267805063E1   1.176275374433781E2  -7.884875859741214   1.417018352835403E2  -7.939988366935571   1.070184619205236E2  -2.436261639395528E1  -3.659572789173279E1  
 1.731540342298289E11   -2.271854891693409E1   8.905454911793210E1  -8.004871797133957   1.176380086391051E2  -8.008276383540071   8.293355738384935E1  -2.164847043099240E1  -5.119612890489555E1  
 1.731662591687042E11   -2.221347769533395E1   6.160011688966069E1  -7.991187371436427   9.388242370756447E1  -8.007779626115074   5.959361316193635E1  -2.092965807176134E1  -7.146110929564038E1  
 1.731784841075795E11   -2.315720371047853E1   2.636781819488366E1  -7.935889289121519   6.976436785640631E1  -7.937763996166859   3.521887429731287E1  -2.143694642083325E1  -8.691827066214039E1  
 1.731907090464548E11   -2.557802594086984E1  -8.227708384603329  -7.899222237517019   4.549912565440616E1  -7.931500879641720   1.148904165318953E1  -2.276929661095880E1  -1.017633143576169E2  
 1.732029339853301E11   -3.086390812945739E1  -3.851986460561962E1  -7.778917116389075   2.131212057797585E1  -7.786411588293270  -1.258718130652304E1  -2.519622542934378E1  -1.121163626366491E2  
 1.732151589242054E11   -4.039937258166034E1  -1.327284810112932E2  -7.675311704298030  -4.045804225516251  -7.665088322338000  -3.837282240673130E1  -2.932055041882838E1  -1.074579452322100E2  
 1.732273838630807E11   -3.256679760740045E1   1.155641090597093E2  -7.660114345885611  -3.017009117659332E1  -7.659314148847514  -6.320068260365300E1  -3.002896548058275E1  -7.805136282782959E1  
 1.732396088019560E11   -2.682595272511989E1   7.246115941393933E1  -7.748293227171554  -5.508270002603799E1  -7.750403238619474  -8.846071442626101E1  -2.730729543831022E1  -6.584702417617217E1  
 1.732518337408313E11   -2.444552115276698E1   4.023857040761328E1  -7.822653703637180  -8.017494412838130E1  -7.810502671415129  -1.132037868298549E2  -2.494272728635385E1  -7.318286775753285E1  
 1.732640586797066E11   -2.345208843961271E1   6.364996010382343  -7.959588610193335  -1.051653188597571E2  -7.899489356732995  -1.375942887589022E2  -2.471927127083999E1  -8.285442588976797E1  
 1.732762836185819E11   -2.371905358106570E1  -2.859467771321699E1  -8.023734600611768  -1.295941178626686E2  -8.008282229283033  -1.616303831995384E2  -2.421161388570074E1  -8.844633852854111E1  
 1.732885085574572E11   -2.453646122898670E1  -6.373818898307718E1  -8.002823548805765  -1.539110825460585E2  -7.983622881491096   1.739114688517594E2  -2.439905918016631E1  -9.950016397399361E1  
 1.733007334963325E11   -2.593192054467702E1  -1.031793605972542E2  -7.943117743935940  -1.789222332628098E2  -7.960069062662284   1.491106109484221E2  -2.539677146673855E1  -1.061055910639291E2  
 1.733129584352078E11   -2.719648065336649E1  -1.499974189093862E2  -8.047642124399674   1.557245549580142E2  -8.030204616357359   1.240905373665399E2  -2.711100305679306E1  -1.102358906143569E2  
 1.733251833740831E11   -2.768785104398850E1   1.596566037838646E2  -8.228469237214370   1.305992375156016E2  -8.211890442697978   9.953042304819877E1  -2.824859443064024E1  -9.651954269490858E1  
 1.733374083129584E11   -2.716251076092916E1   1.101787823448071E2  -8.465977605238139   1.067583599244401E2  -8.405163945425613   7.482076268068147E1  -2.628591058925361E1  -9.039314261311198E1  
 1.733496332518337E11   -2.714928932773697E1   6.512074811936800E1  -8.570686929946303   8.304629377297826E1  -8.627664870460189   5.213893493686452E1  -2.407594831282079E1  -9.990754024480418E1  
 1.733618581907091E11   -2.709325146430892E1   3.201856661207931E1  -8.621841296426997   6.039169792471887E1  -8.627249840466629   2.901816967141075E1  -2.339205687784832E1  -1.212925800003830E2  
 1.733740831295844E11   -2.649554260936958E1  -5.882322608078268  -8.424635432900406   3.698583051987781E1  -8.447925626792060   5.977597435229792  -2.456526806708661E1  -1.489886955821999E2  
 1.733863080684597E11   -2.739690060028631E1  -4.587318589233710E1  -8.223046892200365   1.169299986195804E1  -8.215191111718520  -1.937309557695010E1  -2.772488168694936E1  -1.782861975814447E2  
 1.733985330073350E11   -2.966217381526452E1  -9.357353480429488E1  -8.244207297740458  -1.412979140570394E1  -8.222781118870245  -4.451809569621251E1  -3.279486507570028E1   1.282628070266339E2  
 1.734107579462103E11   -3.202127180189375E1  -1.503318836182444E2  -8.421629916908479  -3.956357622977600E1  -8.393129443407039  -7.052888104233105E1  -3.356273762603132E1   3.788525119771556E1  
 1.734229828850856E11   -3.446526922655117E1   1.279959965661689E2  -8.617540688376979  -6.364389935027827E1  -8.582528224367291  -9.454153335085189E1  -2.898226610907281E1  -1.347743049410000E1  
 1.734352078239609E11   -3.260746139513467E1   5.693199915337304E1  -8.694939891534933  -8.665093982428508E1  -8.727351026682378  -1.179470495743228E2  -2.733696803562079E1  -4.290090564016725E1  
 1.734474327628362E11   -3.013054738523473E1   3.573875865065407E-1  -8.715545298990248  -1.095072115701046E2  -8.685996452380445  -1.415004019516010E2  -2.636270917120719E1  -5.388201547695769E1  
 1.734596577017115E11   -2.781577716528243E1  -4.614793088418202E1  -8.589915091195497  -1.332808744610898E2  -8.578067323414654  -1.654675632556933E2  -2.611123898310915E1  -5.987608322664403E1  
 1.734718826405868E11   -2.535811768873537E1  -8.618618281443540E1  -8.385704306271332  -1.580375171332194E2  -8.421136980254088   1.696937222579810E2  -2.479237617186137E1  -6.318603262405555E1  
 1.734841075794621E11   -2.341204040876140E1  -1.288591166416826E2  -8.413332932385405   1.759501263157083E2  -8.467733596665738   1.444676827806377E2  -2.338241794243427E1  -7.210645504746270E1  
 1.734963325183374E11   -2.287496319563721E1  -1.639655758339688E2  -8.633577155176546   1.509656242402248E2  -8.616739999751125   1.189251811080981E2  -2.268042878998323E1  -8.501636770286956E1  
 1.735085574572127E11   -2.192904748940057E1   1.653542853548699E2  -8.870150557713073   1.273550292540944E2  -8.881721955180716   9.467047920926547E1  -2.229426766502364E1  -9.844876210047825E1  
 1.735207823960880E11   -2.150032962755519E1   1.339361994235428E2  -9.051759678708423   1.042180239389819E2  -9.026856981277987   7.233882155151598E1  -2.214034651013358E1  -1.141964034712805E2  
 1.735330073349633E11   -2.188734354893509E1   1.054698180005573E2  -9.007564620769845   8.194411445772978E1  -9.047545509251052   4.974319566107731E1  -2.284762165107101E1  -1.340027517905130E2  
 1.735452322738386E11   -2.298646177087710E1   7.784953587886737E1  -8.780504291795262   5.905918072398478E1  -8.801517572441034   2.660602724791212E1  -2.475880971952726E1  -1.569501195340250E2  
 1.735574572127139E11   -2.538654531419803E1   5.703101491252504E1  -8.529918746168995   3.473943457273661E1  -8.496232716122755   2.306398018319902  -2.780976635492789E1   1.787986257463963E2  
 1.735696821515892E11   -3.023255348619001E1   4.165392082197513E1  -8.257175811402309   9.108596862576402  -8.346083634555477  -2.323232604140582E1  -3.288455859779905E1   1.397728947981522E2  
 1.735819070904645E11   -3.322300344208453E1   7.677112426117010E1  -8.292173546191384  -1.634426338285977E1  -8.280419626676279  -4.974788793232750E1  -3.782068700771673E1   6.640725414275967E1  
 1.735941320293398E11   -2.983738630823887E1   8.896141041716385E1  -8.387459807412489  -4.182936589599681E1  -8.352401987708007  -7.454697844316279E1  -3.349188809861889E1   1.124144254852634E1  
 1.736063569682152E11   -2.709388217688570E1   8.059232587825522E1  -8.534867091603914  -6.583067111982325E1  -8.514127725931157  -9.938362766834885E1  -3.071399188475402E1  -1.450090459764361E1  
 1.736185819070905E11   -2.583110882006600E1   5.928011209730192E1  -8.643229408860872  -8.993670478500138E1  -8.646143976654491  -1.238650518132197E2  -2.851111989939238E1  -2.897285197820370E1  
 1.736308068459658E11   -2.747450544273212E1   5.369507816133137E1  -8.734001131862453  -1.140022963611398E2  -8.741976340882854  -1.482109825135593E2  -2.747279130892570E1  -3.626886481199608E1  
 1.736430317848411E11   -2.656968775312501E1   5.204117280012173E1  -8.656929819972664  -1.369020063691359E2  -8.604158236041943  -1.712274131001763E2  -2.690505757591512E1  -3.819679960794306E1  
 1.736552567237164E11   -2.773651182267284E1   4.269089136415616E1  -8.467189782250285  -1.618987854734062E2  -8.483816640411893   1.639039059958527E2  -2.423100526204743E1  -3.809655515455796E1  
 1.736674816625917E11   -2.676519839862525E1   4.802109959169891E1  -8.514970394994611   1.729018634879468E2  -8.490387402535896   1.381117131356930E2  -2.184856993249530E1  -4.793701292710481E1  
 1.736797066014670E11   -2.531370176345942E1   4.988876770134628E1  -8.664539024559103   1.478311938620586E2  -8.713281296873374   1.133312605731480E2  -2.044045596382579E1  -6.074600158922705E1  
 1.736919315403423E11   -2.328885914374857E1   4.086480973113154E1  -8.940230714307981   1.237171694255405E2  -8.954494083904477   8.941099132764362E1  -1.927586399650029E1  -7.686186158252842E1  
 1.737041564792176E11   -2.192313354703973E1   2.501880790203081E1  -9.036872510668250   1.013930475707694E2  -9.086930372593320   6.672091611884554E1  -1.885267224612912E1  -9.311361563306683E1  
 1.737163814180929E11   -2.142693533906827E1   8.343172979659013  -8.995996585803891   7.948610468573592E1  -9.016754845399362   4.428428875724457E1  -1.893465715284216E1  -1.115985584719582E2  
 1.737286063569682E11   -2.102500625009796E1  -3.787660656608276  -8.654535813715892   5.568018641241005E1  -8.713833742619471   2.134659372641545E1  -1.971142201833510E1  -1.299105976182852E2  
 1.737408312958435E11   -2.075919076631783E1  -2.555170054983340E1  -8.300171222036228   3.178869094716676E1  -8.348328899544320  -3.296778016076076  -2.178069088268350E1  -1.478242327145277E2  
 1.737530562347188E11   -2.128856144858267E1  -4.985597961604417E1  -8.118354264864895   5.592487115891431  -8.167556021578742  -3.004699184258500E1  -2.473092262626144E1  -1.591620554011662E2  
 1.737652811735941E11   -2.315034642535887E1  -7.743109694972250E1  -8.081283447093488  -2.110006311336000E1  -8.143993557270608  -5.608828459319987E1  -2.733474090172806E1  -1.531871567115536E2  
 1.737775061124694E11   -2.487055609363449E1  -1.022105709177890E2  -8.281102476927819  -4.639078573769976E1  -8.358270231568621  -8.170222493755426E1  -2.839284419231992E1  -1.443368836676036E2  
 1.737897310513447E11   -2.741300637068855E1  -1.298560840671364E2  -8.511345575145352  -7.104910977868795E1  -8.546809881455463  -1.056359008199139E2  -2.651534478347183E1  -1.444127016734522E2  
 1.738019559902200E11   -2.842634635050516E1  -1.776591917894245E2  -8.689712335153836  -9.411265897632549E1  -8.703121339428842  -1.301021394565993E2  -2.604420880469152E1  -1.644070949999588E2  
 1.738141809290953E11   -2.830740909511793E1   1.372238166727533E2  -8.548766019117425  -1.175192866510789E2  -8.610727565573683  -1.529649275853833E2  -2.584885653259485E1   1.634109055103020E2  
 1.738264058679706E11   -2.774763513367798E1   1.030449937481939E2  -8.365728799759314  -1.421680049628518E2  -8.393552594610720  -1.777903021278062E2  -2.623000297764843E1   1.154921217176943E2  
 1.738386308068460E11   -2.655938094009658E1   8.477088368804714E1  -8.369693061385529  -1.676068130469141E2  -8.369636922865031   1.566469341992425E2  -2.589387924402057E1   6.354641138727315E1  
 1.738508557457213E11   -2.473492592998311E1   7.088832620873131E1  -8.426928022381032   1.666974539567206E2  -8.475575102330009   1.308052300438142E2  -2.458399140894846E1   1.337020880502364E1  
 1.738630806845966E11   -2.316630948555151E1   5.541436444577112E1  -8.789387354939933   1.411130414611218E2  -8.835762290347406   1.062883096657747E2  -2.279563299605102E1  -2.689135070625562E1  
 1.738753056234719E11   -2.227432557828938E1   4.204956537259915E1  -9.029704620402917   1.185228336873442E2  -9.052161463981895   8.270762578150121E1  -2.162104202523131E1  -6.217100711715597E1  
 1.738875305623472E11   -2.115614299574639E1   2.929520693944776E1  -9.127238502109103   9.622682234357750E1  -9.132385505818384   6.107247513717819E1  -2.184817191663857E1  -9.820524131874093E1  
 1.738997555012225E11   -2.003881937221161E1   1.813612036496707E1  -8.928304673482527   7.404604239992504E1  -8.948534789737826   3.871422316559033E1  -2.361035617949842E1  -1.353230594667685E2  
 1.739119804400978E11   -1.910479221343772E1  -1.231199349656775  -8.659221910053041   4.967191515175879E1  -8.639066590160345   1.421809870034739E1  -2.653340850251122E1   1.781520456657500E2  
 1.739242053789731E11   -1.932445167031543E1  -2.073878416571762E1  -8.478992528376510   2.438309195080412E1  -8.526478528002375  -1.141734727520946E1  -2.885764040418144E1   1.079844070180286E2  
 1.739364303178484E11   -2.049591140302329E1  -3.725887570828399E1  -8.458274759469836  -1.710597950354269  -8.506228065135440  -3.652016764279113E1  -2.519693907363604E1   4.121073917065658E1  
 1.739486552567237E11   -2.195268448647106E1  -4.914525189771285E1  -8.631495557308204  -2.713263248940464E1  -8.668226859757469  -6.161675207965742E1  -2.186926191690955E1  -3.827270789021233  
 1.739608801955990E11   -2.375012881694678E1  -5.846705327579134E1  -8.847010101938706  -5.043836029565404E1  -8.861742582281933  -8.546537598022238E1  -1.977130377477540E1  -3.569290571973224E1  
 1.739731051344743E11   -2.645999826830752E1  -5.703854270585634E1  -9.004554020931401  -7.355627585487289E1  -9.038898640453384  -1.079120548769731E2  -1.915869123005955E1  -6.581451743413834E1  
 1.739853300733496E11   -2.864143592226220E1  -5.539789406526849E1  -8.797413937354452  -9.604796843240460E1  -8.801134450979495  -1.303024773566078E2  -1.950749764002327E1  -9.249881401998538E1  
 1.739975550122250E11   -2.753528172070158E1  -2.970198199351517E1  -8.543607482003525  -1.195381884765144E2  -8.515541308185524  -1.539139494531855E2  -2.146010631171414E1  -1.157089703179365E2  
 1.740097799511003E11   -2.456705713783868E1  -3.799172361802272E1  -8.252920938346561  -1.449782905312058E2  -8.310670132685981  -1.792172538126949E2  -2.461857102692511E1  -1.305820356754009E2  
 1.740220048899756E11   -2.374859774251070E1  -5.539592378760974E1  -8.186868328846563  -1.708587919632277E2  -8.143784161358404   1.551825550116527E2  -2.882445309202757E1  -1.324837234934724E2  
 1.740342298288509E11   -2.357270723075604E1  -7.436689479235412E1  -8.226330128469217   1.632414980208463E2  -8.311760591194268   1.294740458052262E2  -3.187424130845117E1  -1.046562375631935E2  
 1.740464547677262E11   -2.522246475308784E1  -9.522087991566407E1  -8.523323278781415   1.387362843111997E2  -8.445380995773096   1.048822938934352E2  -2.739239077570143E1  -8.830215091007409E1  
 1.740586797066015E11   -2.926307066970207E1  -1.089380961109752E2  -8.607385195154624   1.161305015548348E2  -8.674652664500906   8.226716195069963E1  -2.428600125531673E1  -1.060987934366518E2  
 1.740709046454768E11   -3.442746364333210E1  -1.129358917690964E2  -8.517236387542189   9.236439673305416E1  -8.541162006790177   5.939898623766572E1  -2.404030498282650E1  -1.307060735792316E2  
 1.740831295843521E11   -3.690812824621622E1  -4.726720620831211E1  -8.279188807557613   6.849468503914754E1  -8.234680546539375   3.545040187991754E1  -2.523380261248782E1  -1.618391216371041E2  
 1.740953545232274E11   -3.146492960662666E1  -5.300203011862473E1  -8.068577571735887   4.327392627335536E1  -8.057615947646250   1.106553999756137E1  -2.752013005921121E1   1.629232699252200E2  
 1.741075794621027E11   -3.052191517355557E1  -7.957729993013909E1  -7.956220894621662   1.814981273389168E1  -8.000310295994659  -1.531972913885485E1  -3.032243561322510E1   1.096886671941830E2  
 1.741198044009780E11   -3.298193244272853E1  -1.053034531689620E2  -7.977446200821196  -8.034644307022628  -8.071005484169437  -4.030994766886999E1  -2.927268527013408E1   4.872094102632561E1  
 1.741320293398533E11   -3.902250153934439E1  -1.424963328398301E2  -8.175566138440027  -3.347837067931260E1  -8.109622077220635  -6.572786665527828E1  -2.554009842602700E1  -1.609501967444944  
 1.741442542787286E11   -3.694230730781413E1   1.067515853506387E2  -8.297807818849373  -5.722744130604827E1  -8.362882899201491  -8.973494637081144E1  -2.372105768009177E1  -4.014763929776802E1  
 1.741564792176039E11   -2.975641255431777E1   5.684411978785283E1  -8.333841571860223  -7.999818389079911E1  -8.312303996794672  -1.121815700474280E2  -2.383824269479717E1  -7.353959235431428E1  
 1.741687041564792E11   -2.413960934115855E1   2.329572795368193E1  -8.178395496698949  -1.039272294697660E2  -8.236828796893928  -1.363854248730833E2  -2.624406074613791E1  -9.514210525546991E1  
 1.741809290953545E11   -2.203897082397236E1  -4.393634489834167  -8.075828194058676  -1.290853396739931E2  -8.093050740731735  -1.607828405271722E2  -3.110801938354425E1  -1.025133541421182E2  
 1.741931540342298E11   -2.066234331584087E1  -2.751300406456878E1  -7.965912781372333  -1.543603235292869E2  -7.965629902547686   1.744966234753752E2  -3.297696528374529E1  -6.353191687859297E1  
 1.742053789731051E11   -2.005137618818600E1  -5.090100591959416E1  -7.916396206821613  -1.797163725502055E2  -7.947557658134906   1.497017166567953E2  -3.058962326857759E1  -4.805626960196487E1  
 1.742176039119804E11   -2.041823430087192E1  -7.132092604166998E1  -8.029728462177582   1.556824813129904E2  -7.964626451941964   1.241628180069226E2  -2.573887695228478E1  -5.121215227632918E1  
 1.742298288508557E11   -2.098903988273546E1  -9.328073368271163E1  -8.262886389524681   1.308026914664243E2  -8.223624809465559   1.000082881569575E2  -2.268737065267462E1  -6.720403678460210E1  
 1.742420537897311E11   -2.213018352032365E1  -1.191461610987631E2  -8.290208109744460   1.077818204408410E2  -8.291996944624925   7.632944815974022E1  -2.148725755437190E1  -9.130373978928985E1  
 1.742542787286064E11   -2.485971118298869E1  -1.469429529467510E2  -8.170625828469854   8.424165888595974E1  -8.189480097244706   5.324505074940224E1  -2.146971630947885E1  -1.208086171106103E2  
 1.742665036674817E11   -3.157580380851233E1  -1.722404963182232E2  -7.997500075751388   6.071753395584547E1  -8.015843849816159   2.932426879921258E1  -2.336282963306420E1  -1.466351222945859E2  
 1.742787286063570E11   -4.403932949806334E1   1.708009201379013E2  -7.796103691593395   3.567576463897857E1  -7.831928538230610   4.242733809356792  -2.785504357028026E1  -1.747252333544186E2  
 1.742909535452323E11   -3.982832827038248E1  -3.548890182819363E1  -7.745219499065571   1.031774220630243E1  -7.744848128481151  -2.108859516788808E1  -3.469305569456878E1   1.553711709517226E2  
 1.743031784841076E11   -3.205407267653225E1  -4.543766537639500E1  -7.793228310918171  -1.500086859374491E1  -7.757866187957909  -4.628523342375777E1  -4.252821375167203E1   1.165671870524163E1  
 1.743154034229829E11   -2.955122243511465E1  -6.461395485279751E1  -7.880785624123718  -4.012713671547876E1  -7.879722489928964  -7.134335219459554E1  -3.225408159588811E1  -3.656130223194801E1  
 1.743276283618582E11   -2.832304357089221E1  -8.878831059049050E1  -8.082027434206262  -6.402955393346598E1  -8.028524698486967  -9.494825981378060E1  -2.853517145630129E1  -6.491555073396883E1  
 1.743398533007335E11   -3.028598244778792E1  -1.065571049430259E2  -7.953635213222428  -8.693402214993890E1  -7.975966636475455  -1.185767717133683E2  -2.869641951197050E1  -9.703405477211415E1  
 1.743520782396088E11   -3.278631362232696E1  -1.144461982054134E2  -7.832921659028433  -1.114096049450496E2  -7.808656495756808  -1.426531393286251E2  -3.185723907941979E1  -1.154147933339407E2  
 1.743643031784841E11   -3.354861485023420E1  -9.593112549218509E1  -7.693288265176562  -1.355022394763265E2  -7.664800836420338  -1.676305661189984E2  -4.570866199555863E1  -1.018636755809048E2  
 1.743765281173594E11   -3.234847720519845E1  -1.006527273958057E2  -7.584743459837799  -1.610725336681428E2  -7.629303740693831   1.669388327366289E2  -3.349319025644699E1  -4.593730006134775  
 1.743887530562347E11   -3.083551243839110E1  -1.083007795560645E2  -7.675417564662013   1.736563816068213E2  -7.702250017685288   1.418034692358274E2  -2.685815564164714E1  -2.548136050925714E1  
 1.744009779951100E11   -3.012245172611801E1  -1.338040600493272E2  -7.802127067857565   1.488576959623944E2  -7.778746998193331   1.180953809644681E2  -2.343250054775086E1  -4.766550285125116E1  
 1.744132029339853E11   -3.171387339877281E1  -1.740193806259847E2  -7.827166147406707   1.260469102736463E2  -7.790580506511860   9.419922467174102E1  -2.161717554762490E1  -7.550156619469023E1  
 1.744254278728606E11   -3.191217738865163E1   1.341645450523706E2  -7.798948113624318   1.014836249096311E2  -7.816549331824459   6.972194034143058E1  -2.207004500236662E1  -1.012599181398380E2  
 1.744376528117359E11   -3.090460486969489E1   7.486957267995835E1  -7.642316005210414   7.758218432971708E1  -7.662663714588200   4.548572976580677E1  -2.360655230467034E1  -1.272351341123089E2  
 1.744498777506112E11   -2.956134503631515E1   1.939489034556192E1  -7.554501564841407   5.257521617800118E1  -7.523011852684507   2.060985887682037E1  -2.731028037599894E1  -1.499473812595041E2  
 1.744621026894865E11   -2.866597388960900E1  -1.616713849285076E1  -7.458363351092661   2.737598719962298E1  -7.422937941828184  -4.905745563691008  -3.437680001325883E1  -1.775565774578824E2  
 1.744743276283619E11   -2.774600361501716E1  -4.100759560353069E1  -7.489960855311837   2.032963868906676  -7.492731038695426  -3.039094948713093E1  -4.351544496353936E1   2.060482713774954E1  
 1.744865525672372E11   -2.744940601104817E1  -6.376311699305668E1  -7.571839428350370  -2.289545543397153E1  -7.601353846514343  -5.622826942086586E1  -3.053306501032657E1  -3.368011696725475E1  
 1.744987775061125E11   -2.762806229180021E1  -8.454148994843013E1  -7.736205554745483  -4.753857129810582E1  -7.825426382332404  -7.981096625636373E1  -2.682708683326872E1  -5.458104873410696E1  
 1.745110024449878E11   -2.875891547898026E1  -1.086844607543316E2  -7.891175735220395  -7.072216814581284E1  -7.927244922974987  -1.035977769919892E2  -2.448634896073440E1  -8.082554441263774E1  
 1.745232273838631E11   -3.241214623537660E1  -1.441735017156491E2  -7.917947902585515  -9.419515830085818E1  -7.880221186183231  -1.266850362985315E2  -2.503252263655303E1  -1.079335550478243E2  
 1.745354523227384E11   -4.291514004941818E1  -1.111888244913728E2  -7.720878919084817  -1.178355376318578E2  -7.813479825197610  -1.504338781446847E2  -2.706875171890713E1  -1.374641441079004E2  
 1.745476772616137E11   -3.714258810273748E1  -4.902414825459230E1  -7.584971890050996  -1.421349411451108E2  -7.648855084476470  -1.755586711262033E2  -3.156328411994585E1  -1.668689404126976E2  
 1.745599022004890E11   -3.283730980465396E1  -7.510981997837341E1  -7.548187805898946  -1.665190479573881E2  -7.538453387472036   1.598203012708898E2  -3.896729328101760E1   1.197804550878876E2  
 1.745721271393643E11   -2.975212199889911E1  -1.005431989373859E2  -7.532203393204529   1.687015485163345E2  -7.520446936887832   1.348325072583090E2  -3.152585738252686E1   2.560997899298467E1  
 1.745843520782396E11   -3.055753608403070E1  -1.410305143720441E2  -7.542167575777188   1.450690001112394E2  -7.509288776767190   1.104670973599957E2  -2.566062807195008E1  -1.414161305168422E1  
 1.745965770171149E11   -3.178732142177017E1   1.735786283862716E2  -7.395538177005545   1.212526505058933E2  -7.431803163729048   8.645500902004368E1  -2.376970968404654E1  -4.717131940307547E1  
 1.746088019559902E11   -3.383105938425128E1   1.152364474349253E2  -7.352804954894297   9.643092549458113E1  -7.325601479557450   6.106110190296496E1  -2.336270005963459E1  -6.633485323148229E1  
 1.746210268948655E11   -3.370565732827932E1   4.774759179689139E1  -7.197052190933392   7.159865919263521E1  -7.269079830330231   3.628063120365275E1  -2.403645419230579E1  -8.288830228083404E1  
 1.746332518337408E11   -3.094182358942446E1   4.329105255971760  -7.117992296351134   4.642437715515229E1  -7.179342708973124   1.123139768676504E1  -2.538228719139914E1  -8.860111630091781E1  
 1.746454767726162E11   -3.050866227897830E1  -3.068494793603220E1  -7.115868141618207   2.138605368774150E1  -7.158593811600005  -1.386039255806406E1  -2.655128604105026E1  -9.249200193012588E1  
 1.746577017114915E11   -3.004077829600566E1  -6.347774700032694E1  -7.169004168768543  -4.044761419837671  -7.207781852062403  -3.936186683316103E1  -2.586881095332664E1  -8.734699399932867E1  
 1.746699266503668E11   -3.024611338219875E1  -8.742060276361272E1  -7.218638837028574  -2.849317098030123E1  -7.309123089944611  -6.376348799739477E1  -2.433459283868565E1  -8.932662925870075E1  
 1.746821515892421E11   -3.164447330516316E1  -1.275312713806264E2  -7.310019085747596  -5.306859410564911E1  -7.349063779161290  -8.807898227627098E1  -2.310062188535826E1  -1.040887085579376E2  
 1.746943765281174E11   -3.415025561637137E1  -1.771007562927963E2  -7.342295849975858  -7.704618263390249E1  -7.328851897245831  -1.122528656514681E2  -2.301591575987066E1  -1.225244492190321E2  
 1.747066014669927E11   -3.547282551581834E1   1.029907506740431E2  -7.321655312730886  -1.014516301362688E2  -7.348046887612191  -1.365894772240553E2  -2.402009477409861E1  -1.411415856605042E2  
 1.747188264058680E11   -3.236942849740425E1   4.048602914108627E1  -7.344378720061433  -1.257430250046296E2  -7.316512781828185  -1.616191226042978E2  -2.651380040142259E1  -1.578033321166082E2  
 1.747310513447433E11   -2.824058649480083E1   5.986322574253149E-1  -7.314363049265954  -1.503609600343422E2  -7.292123245659333   1.740176313242638E2  -2.955181473959998E1  -1.783935689414318E2  
 1.747432762836186E11   -2.698242250457575E1  -2.667060870858550E1  -7.312750390696360  -1.749439037464220E2  -7.307329528670357   1.496901239186716E2  -3.769392491921098E1   1.454357500081795E2  
 1.747555012224939E11   -2.751580935763388E1  -5.687465304281980E1  -7.295032182017040   1.606983073531943E2  -7.273272314190569   1.253784548018414E2  -4.193836901255996E1  -2.679336917319596E1  
 1.747677261613692E11   -2.925162147208117E1  -7.620607738521701E1  -7.215336034266884   1.365860381210699E2  -7.240035767047546   1.010622080308764E2  -3.196574219849600E1  -7.760675074613069E1  
 1.747799511002445E11   -3.433964695872177E1  -8.153414792074455E1  -7.154707172861277   1.117327267454412E2  -7.162104670715490   7.612974683986633E1  -3.005593364167952E1  -1.046844262500400E2  
 1.747921760391198E11   -3.980537862453526E1  -4.712263853947372E1  -7.100486554194273   8.645536463687940E1  -7.109473521141452   5.212665660544262E1  -3.313106053442663E1  -1.418483747396111E2  
 1.748044009779951E11   -3.170759684332248E1  -2.468466798174703E1  -7.073102743016907   6.130875517769052E1  -7.173904276612628   2.698910414640686E1  -3.845202011441367E1  -1.705922790313532E2  
 1.748166259168704E11   -2.860490433254376E1  -3.159764975964627E1  -7.181388045253848   3.680086848757451E1  -7.177991974426630   2.225424665224103  -4.953851039937288E1   6.095070315844917E1  
 1.748288508557457E11   -2.599755346851486E1  -4.753722715425859E1  -7.176489841587252   1.172453342534728E1  -7.172573855432338  -2.199284404525098E1  -3.549180717754532E1  -7.307986252159492E-1  
 1.748410757946210E11   -2.473099157121754E1  -6.387087585881331E1  -7.189390261006156  -1.179781100454730E1  -7.225962286411275  -4.696104715281380E1  -3.055236200861461E1  -1.962059757017573E1  
 1.748533007334963E11   -2.450769330175496E1  -8.367131002160910E1  -7.176535662241663  -3.653486591319719E1  -7.205062695397109  -7.075230510789115E1  -2.735921401063953E1  -5.332907914337235E1  
 1.748655256723716E11   -2.614139693589452E1  -9.282110645253171E1  -7.156492896897776  -6.094411564871638E1  -7.155627542925190  -9.449530871304322E1  -2.712039740326881E1  -8.662381050513640E1  
 1.748777506112470E11   -2.769486261268218E1  -1.046674655102917E2  -7.020998924408556  -8.586487609894462E1  -7.051139230446490  -1.195018021891714E2  -2.929466287384425E1  -1.083187550718123E2  
 1.748899755501223E11   -2.880375204608640E1  -9.453118732902468E1  -7.049703490043135  -1.108641282835838E2  -7.048448800438089  -1.443255956433679E2  -3.311784792440474E1  -1.237893156295793E2  
 1.749022004889976E11   -2.823019859123641E1  -7.867947924200847E1  -7.039491371724077  -1.356110993808966E2  -7.068802594512878  -1.692763532251305E2  -4.144142297469559E1  -1.039001658546944E2  
 1.749144254278729E11   -2.540557120572174E1  -8.261051076907788E1  -7.131889789473079  -1.609887009638859E2  -7.117925234488379   1.662665462312699E2  -3.731223956286670E1  -2.926580910536356E1  
 1.749266503667482E11   -2.333534784765917E1  -9.365439753141081E1  -7.188738795445523   1.746785509969307E2  -7.229513892552616   1.420144717262284E2  -3.176249411276550E1  -3.053870490756789E1  
 1.749388753056235E11   -2.271680531023833E1  -1.079073652417565E2  -7.201434537237343   1.501675971650130E2  -7.201679400054671   1.187305687243102E2  -2.926952990218088E1  -5.734081932547036E1  
 1.749511002444988E11   -2.283302130886557E1  -1.234174480670952E2  -7.074296226977551   1.256961103607402E2  -7.045794103558514   9.336204846906077E1  -2.966286963021197E1  -9.360014620065972E1  
 1.749633251833741E11   -2.269951351202683E1  -1.325827988051105E2  -7.039745457993210   1.008068103391353E2  -7.075884853174663   6.879369901372824E1  -3.527727714812118E1  -1.342234283056282E2  
 1.749755501222494E11   -2.323240256030195E1  -1.415384997135621E2  -7.018427962171588   7.536166284923060E1  -7.043073681727082   4.421738695023709E1  -3.854245126678203E1   8.198472659223634E1  
 1.749877750611247E11   -2.345859820996397E1  -1.473949527376572E2  -7.071546607415952   5.112046736593564E1  -7.081262659592158   1.997552665138705E1  -2.960666545978477E1   3.661974051201307E1  
 1.750000000000000E11   -2.343034409261731E1  -1.537874447532386E2  -7.124156462637661   2.597584778521708E1  -7.152818962082408  -5.192228401216288  -2.556883208465617E1   8.297594016902799  
