#  HZ   S   DB   R     50.00 
! Rohde & Schwarz ZVA24 4Ports - Version 4.11 - 1145.1110k26 SN: 100599
! Date: 2025-09-01 14:01:58
! Measurements: S11 S21 S12 S22 
! 
 1.200000000000000E11   -2.628129784392843E1   4.969163394464781E1  -1.853490205617769E1   2.082778912704601E1  -1.853785680822038E1  -5.957669004608418  -2.878027131791601E1   1.193401965927705E2  
 1.200122249388753E11   -2.514159371363511E1   3.851873740198414E1  -1.852223758894580E1  -2.630433910068066E1  -1.853068880193291E1  -5.371248425088973E1  -2.964892754297853E1   1.177955843056718E2  
 1.200244498777506E11   -2.526852637231738E1   2.749366848407577E1  -1.851140749032840E1  -7.352517947734208E1  -1.852693440665125E1  -1.012159754810981E2  -2.984037296329057E1   1.255866536677343E2  
 1.200366748166259E11   -2.546515426206310E1   2.027814849263069E1  -1.846732461166685E1  -1.205696196654326E2  -1.849684061907687E1  -1.486245634642519E2  -2.824212773266996E1   1.306568834758820E2  
 1.200488997555012E11   -2.542844898844948E1   1.115727510705509E1  -1.846016441078824E1  -1.679048769661534E2  -1.848600649626465E1   1.633329678882456E2  -2.657167856459689E1   1.250973080652213E2  
 1.200611246943765E11   -2.603767436671902E1  -2.567260711530111  -1.847533230740562E1   1.447297307526883E2  -1.852952315988147E1   1.156255371538779E2  -2.563747978321950E1   1.161649033053085E2  
 1.200733496332518E11   -2.855421588781769E1  -1.261988472377808E1  -1.852507925767939E1   9.770564897830253E1  -1.854964028888511E1   6.828114004091334E1  -2.508208618578523E1   1.083397975583134E2  
 1.200855745721271E11   -3.077815132077926E1  -9.336539780647195E-1  -1.850838006149704E1   5.110830870979355E1  -1.852365928692053E1   2.089432235778282E1  -2.439984518128888E1   9.879973698727430E1  
 1.200977995110024E11   -2.919917343758738E1   4.647061325715153  -1.849006140045581E1   3.731997462303997  -1.851221250381567E1  -2.637516788003018E1  -2.421765319512828E1   8.731597266188011E1  
 1.201100244498778E11   -2.875904140049399E1  -9.291783917578666  -1.851760100669202E1  -4.349145161634737E1  -1.854051278858609E1  -7.382285151203750E1  -2.466101630615340E1   7.489547501475589E1  
 1.201222493887531E11   -3.140139968464988E1  -2.469292021211885E1  -1.852776385219673E1  -9.014427834346422E1  -1.852503615096307E1  -1.212230088239833E2  -2.561658325742869E1   6.688004083452718E1  
 1.201344743276284E11   -3.678331914989646E1  -1.006220515798083E1  -1.848061556410959E1  -1.376225063911067E2  -1.848925610718364E1  -1.681669450975522E2  -2.654699979337263E1   6.045847641643157E1  
 1.201466992665037E11   -3.468150726201991E1   2.327865585793170E1  -1.842991749044019E1   1.754703551879555E2  -1.843465534677123E1   1.439805211950792E2  -2.796724759680061E1   5.604486172249106E1  
 1.201589242053790E11   -3.254010499953628E1   2.426792971945732E1  -1.843123861043226E1   1.280028162262453E2  -1.845662506851840E1   9.653655619958552E1  -2.952922646920005E1   6.032449897434142E1  
 1.201711491442543E11   -3.153971059030510E1   2.821219944589381E1  -1.841719465642664E1   8.124704454421593E1  -1.844380015732486E1   4.909537427810854E1  -2.942860715240119E1   7.218950125018213E1  
 1.201833740831296E11   -2.898690118451128E1   2.807848663352480E1  -1.839328281933214E1   3.409161809414322E1  -1.842171389557601E1   1.693040123549067  -2.753165445524781E1   7.392205739230640E1  
 1.201955990220049E11   -2.722137718904732E1   1.354061394043205E1  -1.838356101144771E1  -1.346339746275257E1  -1.839898051725649E1  -4.595724594627841E1  -2.638887148499471E1   6.537825479048640E1  
 1.202078239608802E11   -2.758267981111437E1  -4.941042008262942  -1.840082236693543E1  -6.026805826040506E1  -1.842292711390933E1  -9.345031699577685E1  -2.628720836061202E1   5.559211745544167E1  
 1.202200488997555E11   -3.004398777225758E1  -1.144396865957071E1  -1.840209751890708E1  -1.074508454030864E2  -1.840512605609390E1  -1.404072413003666E2  -2.681181076586550E1   4.983636938227333E1  
 1.202322738386308E11   -3.097902978020991E1  -3.964136884369792E-1  -1.835614243635800E1  -1.544121446064706E2  -1.835125776137318E1   1.723346595717193E2  -2.692070243102436E1   4.649286932430972E1  
 1.202444987775061E11   -2.978229566034560E1  -3.425113593596370E-1  -1.831195016048592E1   1.582001305509504E2  -1.833075992708728E1   1.250231316811348E2  -2.702132906709438E1   4.197058144107229E1  
 1.202567237163814E11   -3.025098602717880E1  -7.377908051046875  -1.831906700542303E1   1.104613246948655E2  -1.833833903030336E1   7.767853516271038E1  -2.761585118847642E1   3.811471776742288E1  
 1.202689486552567E11   -3.167158547903196E1   1.002670873484646E-1  -1.829264683875336E1   6.336641234960633E1  -1.832249191046122E1   3.048347548720619E1  -2.803426903168802E1   3.887597899080298E1  
 1.202811735941320E11   -3.000282547561818E1   1.117629146905258E1  -1.824296408658978E1   1.608486676711009E1  -1.827174451219035E1  -1.666193146525390E1  -2.765532659129469E1   3.974249894697632E1  
 1.202933985330073E11   -2.824678796902403E1   4.863975644085909  -1.821360064902557E1  -3.156117111760742E1  -1.824350946245720E1  -6.448992876075484E1  -2.730144527258385E1   3.546798696972057E1  
 1.203056234718826E11   -2.823337020620063E1  -4.259333092049080  -1.821727273772795E1  -7.889254507308564E1  -1.824591426693651E1  -1.118118923978299E2  -2.752912376844067E1   3.193289621436093E1  
 1.203178484107580E11   -2.863637616111666E1  -1.704662914304602  -1.818713023177390E1  -1.261718587661821E2  -1.821610694459681E1  -1.588165334260060E2  -2.739621613910314E1   3.089441448960716E1  
 1.203300733496333E11   -2.721946253710299E1   7.251107881318496E-1  -1.817422810077845E1  -1.737498762003386E2  -1.818401020864112E1   1.536709998552764E2  -2.685870380118363E1   2.852905600581502E1  
 1.203422982885086E11   -2.583168180935045E1  -8.343939807021920  -1.817616061869818E1   1.384245283329719E2  -1.819294029476858E1   1.064876036665214E2  -2.669433032824972E1   2.101288253461885E1  
 1.203545232273839E11   -2.589683117728382E1  -1.883870962916987E1  -1.817791404759618E1   9.102075198820072E1  -1.820467356765179E1   5.948709021337525E1  -2.718399424163516E1   1.496093254605942E1  
 1.203667481662592E11   -2.630302466348597E1  -2.246478094988942E1  -1.814597516106037E1   4.340374786556960E1  -1.816837657569456E1   1.232164071737008E1  -2.771841940524759E1   1.298323903924202E1  
 1.203789731051345E11   -2.554953735541118E1  -2.505292533916862E1  -1.812888949197122E1  -4.297282727489433  -1.817619895216814E1  -3.511861689654399E1  -2.765193316909197E1   1.097830878888771E1  
 1.203911980440098E11   -2.484947175758198E1  -3.553889591799704E1  -1.816678886179332E1  -5.182228002646185E1  -1.819901806430147E1  -8.261182967635666E1  -2.788047856310831E1   5.242093082098694  
 1.204034229828851E11   -2.532967637039385E1  -4.855193737051371E1  -1.818818086258286E1  -9.900583224125691E1  -1.822674759189720E1  -1.295591727094883E2  -2.898693430598475E1   8.130001416219000E-1  
 1.204156479217604E11   -2.660811125712508E1  -5.386908969758022E1  -1.814588271234375E1  -1.464572320604020E2  -1.819098484893247E1  -1.763265061371515E2  -3.029642695375470E1   3.632116293828640  
 1.204278728606357E11   -2.686880873418145E1  -5.689132467336597E1  -1.815365888779535E1   1.659339955330537E2  -1.816981969204970E1   1.366718263686490E2  -3.076350824274581E1   1.148010474111173E1  
 1.204400977995110E11   -2.706126948031033E1  -6.742910355332668E1  -1.816504836944298E1   1.184118674237516E2  -1.820085737865734E1   8.943770955709391E1  -3.047132954678684E1   1.626588930571664E1  
 1.204523227383863E11   -2.914817752523580E1  -8.048766708669847E1  -1.819546138782826E1   7.120270351267121E1  -1.820495825249792E1   4.266782230520911E1  -2.978929491316389E1   2.193299857038028E1  
 1.204645476772616E11   -3.282364957771711E1  -7.407893654047501E1  -1.814608257843571E1   2.402715649992899E1  -1.814156082756364E1  -4.108222545803793  -2.845245815254288E1   2.362619891694952E1  
 1.204767726161369E11   -3.224630110985325E1  -5.371363747163611E1  -1.809781223196753E1  -2.403386187281134E1  -1.810934932279896E1  -5.139704075546693E1  -2.726893098007874E1   1.810829113139224E1  
 1.204889975550122E11   -3.105040789283878E1  -5.801224312155029E1  -1.811290588831641E1  -7.162444305464463E1  -1.812610048975667E1  -9.876711048937906E1  -2.710460114026939E1   1.161051262879983E1  
 1.205012224938875E11   -3.242481266516283E1  -6.190091992106476E1  -1.808140602666041E1  -1.188093111268339E2  -1.811285664132246E1  -1.457721291847331E2  -2.721478224789558E1   8.840592624402893  
 1.205134474327628E11   -3.286079104790642E1  -4.418601402009462E1  -1.806287991469989E1  -1.664114817031515E2  -1.808350225295493E1   1.669922104527367E2  -2.670056621761137E1   6.826069317485853  
 1.205256723716381E11   -2.979841393909970E1  -4.347513163312433E1  -1.803907257080661E1   1.460173901476566E2  -1.808576459186961E1   1.195545805196342E2  -2.622600027304932E1   9.866786199870948E-1  
 1.205378973105134E11   -2.836953537387793E1  -6.014797172505975E1  -1.807743601215588E1   9.888189990771593E1  -1.808722420426289E1   7.256568064712725E1  -2.646694418951398E1  -7.609692942209897  
 1.205501222493888E11   -2.910005427328486E1  -7.546883809135963E1  -1.805228556420495E1   5.166345351554977E1  -1.806394757549238E1   2.546755377957916E1  -2.735100904281450E1  -1.253228476666797E1  
 1.205623471882641E11   -3.059475559167260E1  -8.125923412885153E1  -1.801995744903915E1   4.055527944263008  -1.803069914059387E1  -2.159944418581766E1  -2.832762588095996E1  -1.394044163339937E1  
 1.205745721271394E11   -3.080494093333368E1  -8.751460080486076E1  -1.801806966614394E1  -4.358890474289817E1  -1.804279381300760E1  -6.913887127306535E1  -2.948016084373477E1  -1.408396793317083E1  
 1.205867970660147E11   -3.189910358808645E1  -1.044419985058949E2  -1.808844325861351E1  -9.090915246402952E1  -1.807547216108187E1  -1.162421793405419E2  -3.111724276925099E1  -5.485343571732804  
 1.205990220048900E11   -3.646024263958571E1  -1.259404933598267E2  -1.804531364783539E1  -1.381053966850883E2  -1.807505904258868E1  -1.631383757703084E2  -3.069047481850492E1   1.350414711228086E1  
 1.206112469437653E11   -4.504677442437373E1  -7.837928889633798E1  -1.799247385966697E1   1.743434323787911E2  -1.800538394421507E1   1.497905685437707E2  -2.809965476552177E1   1.944237003539713E1  
 1.206234718826406E11   -3.806740221662098E1  -6.186580054392572E1  -1.798827332829150E1   1.271004848263719E2  -1.800777274601548E1   1.022169709273103E2  -2.650725535784754E1   1.479728439521794E1  
 1.206356968215159E11   -3.822491065201116E1  -9.560549143658430E1  -1.799017594160436E1   7.994305440526117E1  -1.801553194056224E1   5.504880370421689E1  -2.571083272650921E1   1.128539302884995E1  
 1.206479217603912E11   -5.165562717985797E1   1.740771832662564E2  -1.795932367488540E1   3.301037657570455E1  -1.796517030773196E1   8.034608409430662  -2.467667700986186E1   9.137729594783936  
 1.206601466992665E11   -3.838819094321060E1   3.894266984997341E1  -1.793216002928623E1  -1.427296092337552E1  -1.793367471931573E1  -3.965322043364019E1  -2.345986613159258E1   1.871950825135146  
 1.206723716381418E11   -3.377043420242558E1   5.465093618524590  -1.792087688020080E1  -6.160219875984410E1  -1.791294311166038E1  -8.690554830429824E1  -2.318840037854810E1  -7.835257385115436  
 1.206845965770171E11   -3.376514434479488E1  -1.158442604467809E1  -1.790152479974906E1  -1.086754189204625E2  -1.790064793101054E1  -1.345035796351270E2  -2.363975412001218E1  -1.437264078782291E1  
 1.206968215158924E11   -3.306215651898476E1  -7.109057921669184  -1.787018055505568E1  -1.562131201391914E2  -1.786048478721804E1   1.780039291497836E2  -2.381978610340936E1  -1.465307588574032E1  
 1.207090464547677E11   -3.060502868512205E1  -1.372102898772173E1  -1.785031987868941E1   1.562357625166657E2  -1.784613337163678E1   1.307258429212627E2  -2.325320872889091E1  -1.697205310098553E1  
 1.207212713936430E11   -2.971209631241543E1  -3.179169381967981E1  -1.787440633450564E1   1.089448290304029E2  -1.787562828103668E1   8.330599575921360E1  -2.290418229683854E1  -2.385670334795226E1  
 1.207334963325183E11   -3.178603883690382E1  -4.645319102296075E1  -1.787555289225772E1   6.189563405033950E1  -1.789085419191085E1   3.594913481771394E1  -2.322168135275909E1  -2.911610337496168E1  
 1.207457212713937E11   -3.486339496266479E1  -3.018863982628261E1  -1.783193140299114E1   1.540964652237779E1  -1.782919468238291E1  -1.153731101912035E1  -2.328216371150830E1  -3.140874612441197E1  
 1.207579462102690E11   -3.184373346372378E1  -1.194341343397253E1  -1.779902712522148E1  -3.202500611431632E1  -1.781834082569211E1  -5.921287506944412E1  -2.303764023975903E1  -3.633778137591156E1  
 1.207701711491443E11   -2.930733391915102E1  -1.861188491799183E1  -1.780082484486392E1  -7.925172926587570E1  -1.781633936217222E1  -1.068430789353868E2  -2.340611209306533E1  -4.476322524746327E1  
 1.207823960880196E11   -2.859516198770841E1  -2.469187325152315E1  -1.779829259751554E1  -1.260742700793360E2  -1.779952164450100E1  -1.541182661491937E2  -2.482284872671485E1  -4.953783209458550E1  
 1.207946210268949E11   -2.713709225898698E1  -2.702295984927021E1  -1.775299893942307E1  -1.734758303123817E2  -1.775153021622414E1   1.582009482175949E2  -2.600824877812486E1  -4.271023158814059E1  
 1.208068459657702E11   -2.540537624777266E1  -3.758535440979803E1  -1.776019655634119E1   1.391506777818779E2  -1.774745292884812E1   1.104585314990308E2  -2.549033639915853E1  -3.588799579869893E1  
 1.208190709046455E11   -2.489490841947274E1  -5.490851874120477E1  -1.778176269704134E1   9.225224236954804E1  -1.777028955844303E1   6.274234349980525E1  -2.466617148117837E1  -3.768286683657354E1  
 1.208312958435208E11   -2.588095583014088E1  -6.813788261833335E1  -1.777799074955272E1   4.508021766531959E1  -1.775353774844488E1   1.545854150659372E1  -2.459780699904661E1  -3.972796974663916E1  
 1.208435207823961E11   -2.686184207541195E1  -7.029665484771572E1  -1.771775487074279E1  -2.149835906710190  -1.773189343514600E1  -3.214645056786153E1  -2.433276297644828E1  -3.910718829839997E1  
 1.208557457212714E11   -2.638030430345462E1  -7.398449541206607E1  -1.771212943889625E1  -4.935061286410814E1  -1.773359413846836E1  -7.984880752064780E1  -2.370669679228323E1  -4.091880127471921E1  
 1.208679706601467E11   -2.630275372480766E1  -8.708191757777748E1  -1.773402710034999E1  -9.644199309916607E1  -1.774486807469599E1  -1.271411280933822E2  -2.333893326681454E1  -4.550580417461912E1  
 1.208801955990220E11   -2.812646934296437E1  -9.923939550429616E1  -1.772923524530882E1  -1.430453696933405E2  -1.772998901471144E1  -1.747091602096873E2  -2.337421153413871E1  -4.773247275857239E1  
 1.208924205378973E11   -3.039160970238825E1  -9.468609876002326E1  -1.767527905457976E1   1.699990228297337E2  -1.767422818075818E1   1.376611511213213E2  -2.282564441227509E1  -4.926421011477105E1  
 1.209046454767726E11   -2.976178632868845E1  -8.855612663245519E1  -1.769307875693345E1   1.223827901684208E2  -1.768691689691579E1   8.975682863100592E1  -2.216183423978285E1  -5.505108909519029E1  
 1.209168704156479E11   -2.921016633729368E1  -9.878390630587296E1  -1.773633606382279E1   7.540816809506973E1  -1.772322382602113E1   4.218612179967944E1  -2.208802415355254E1  -6.319370084875389E1  
 1.209290953545232E11   -3.112662297301962E1  -1.117742845655582E2  -1.771806059189064E1   2.869070913305783E1  -1.770193711178239E1  -4.919165706900310  -2.267563947721008E1  -6.909654470763394E1  
 1.209413202933985E11   -3.403968069745572E1  -1.077935310917797E2  -1.765492902799002E1  -1.866627948338927E1  -1.765777027520688E1  -5.265998690367443E1  -2.298015073572449E1  -7.185839978072548E1  
 1.209535452322738E11   -3.479575961245637E1  -9.547852669949523E1  -1.766875489123430E1  -6.604847686048306E1  -1.765608652227614E1  -1.004092468543421E2  -2.296029890145528E1  -7.702167741286876E1  
 1.209657701711491E11   -3.698505573071827E1  -9.190114817301804E1  -1.769192592644288E1  -1.128480580699049E2  -1.769389206876856E1  -1.477421299930116E2  -2.369828586131732E1  -8.330095354151248E1  
 1.209779951100244E11   -3.708609492541036E1  -4.360250006711772E1  -1.765934397058116E1  -1.599814683692412E2  -1.766176493184387E1   1.651907535517120E2  -2.493878907601010E1  -8.288606065337653E1  
 1.209902200488998E11   -3.021121211730326E1  -4.048358075183345E1  -1.762852768463642E1   1.529911721413586E2  -1.763117261257392E1   1.174639269142021E2  -2.484940079777473E1  -7.597966383729994E1  
 1.210024449877751E11   -2.681118244352564E1  -6.034973149234528E1  -1.764077442374496E1   1.058065885021813E2  -1.764424385266801E1   7.008529661758756E1  -2.351309606164136E1  -7.810270738239304E1  
 1.210146699266504E11   -2.580983769703542E1  -8.335854375550440E1  -1.762101018498338E1   5.868617790074134E1  -1.764070404333504E1   2.290532058330780E1  -2.286741429867091E1  -8.807521545836109E1  
 1.210268948655257E11   -2.637227972899832E1  -1.011678254861663E2  -1.758326812254176E1   1.133681661534535E1  -1.757816638532693E1  -2.420196691099973E1  -2.309417498557129E1  -9.857600431873490E1  
 1.210391198044010E11   -2.719878837593189E1  -1.135209590020645E2  -1.754723522740816E1  -3.609098088209502E1  -1.754286231790702E1  -7.231070888456189E1  -2.367440064098582E1  -1.086129700613275E2  
 1.210513447432763E11   -2.796762123326757E1  -1.268497858026443E2  -1.757724290894966E1  -8.348648574516170E1  -1.755443086515169E1  -1.197982535903879E2  -2.457709516934591E1  -1.208444412773739E2  
 1.210635696821516E11   -3.007806990235109E1  -1.427987171558769E2  -1.758564863780659E1  -1.309384803315792E2  -1.757594850872275E1  -1.666567429582110E2  -2.656550323778308E1  -1.358564349337773E2  
 1.210757946210269E11   -3.413193773847831E1  -1.432185683221565E2  -1.752661218482433E1  -1.779582461917404E2  -1.752611140380969E1   1.460525366212051E2  -3.058522166346820E1  -1.475787610438617E2  
 1.210880195599022E11   -3.414426623516032E1  -1.254232269366705E2  -1.750846234892153E1   1.344299887460718E2  -1.750238975431136E1   9.859110003329633E1  -3.667563093050963E1  -1.397003498203295E2  
 1.211002444987775E11   -3.249382895556236E1  -1.407444937876981E2  -1.754017899411178E1   8.661297792756831E1  -1.753604369041271E1   5.115738051865599E1  -4.209019937689499E1  -1.090447814221784E2  
 1.211124694376528E11   -3.464846509045328E1  -1.757826488910921E2  -1.756728784618196E1   3.939042940490039E1  -1.757315694678718E1   3.849803318275480  -4.127646705441335E1  -2.775943846602858E1  
 1.211246943765281E11   -4.566883142425898E1   1.194938637259470E2  -1.756247069720856E1  -7.976655666040177  -1.755291353321525E1  -4.288948028878620E1  -3.228749792000453E1  -1.450145750611583E1  
 1.211369193154034E11   -3.926280750100388E1  -4.826878292938010E1  -1.759042361575792E1  -5.546077862545812E1  -1.756999519457027E1  -9.017472513023476E1  -2.766417086253282E1  -2.994564778152298E1  
 1.211491442542787E11   -3.539579444782165E1  -1.015327217718545E2  -1.761406660955479E1  -1.027346305974485E2  -1.759339210612176E1  -1.369030156805309E2  -2.607035653124425E1  -4.655732240251798E1  
 1.211613691931540E11   -3.773074364593801E1  -1.593352747976787E2  -1.758615411806707E1  -1.499875212811568E2  -1.755649785167454E1   1.759112339408832E2  -2.539218083790666E1  -5.537116391540966E1  
 1.211735941320293E11   -4.116256190326160E1   9.326676167783172E1  -1.752884330894917E1   1.623335712678326E2  -1.751837706186257E1   1.289606349328001E2  -2.418990338126131E1  -6.289007192683329E1  
 1.211858190709047E11   -3.552796933897805E1   1.477437808320619E1  -1.751749060897351E1   1.147593465259927E2  -1.751533336734141E1   8.179031634316837E1  -2.312499937409280E1  -7.784063094109762E1  
 1.211980440097800E11   -3.277613365080335E1  -2.159658133627178E1  -1.751947665868702E1   6.740027779188040E1  -1.751658918287117E1   3.473990865048864E1  -2.325931395164238E1  -9.709979503031211E1  
 1.212102689486553E11   -3.215247724015187E1  -3.971135379854937E1  -1.747511003440518E1   2.010597069662421E1  -1.747903863085054E1  -1.182176476973383E1  -2.507137295551083E1  -1.152666429535089E2  
 1.212224938875306E11   -3.098637615063288E1  -5.319888454257679E1  -1.741210628520758E1  -2.745682595580836E1  -1.742878971565324E1  -5.922439297640385E1  -2.823161008351723E1  -1.241704430117292E2  
 1.212347188264059E11   -3.068157702085058E1  -7.566685755737193E1  -1.741278947509210E1  -7.545273381175122E1  -1.742111678665203E1  -1.067724866385741E2  -3.119849728949216E1  -1.232175717260150E2  
 1.212469437652812E11   -3.387436016533379E1  -1.020664020739872E2  -1.744177547920867E1  -1.224476305080769E2  -1.745149152800505E1  -1.536414065607034E2  -3.511325284821213E1  -1.239304535274412E2  
 1.212591687041565E11   -4.992075233902275E1  -7.773246346592073E1  -1.742086214158213E1  -1.698954274792930E2  -1.742223035456848E1   1.593489070120045E2  -4.289095756322173E1  -6.367329711504509E1  
 1.212713936430318E11   -3.441312587032796E1  -9.771621683892603  -1.738510978316323E1   1.423113005150756E2  -1.737193995493896E1   1.120327114211346E2  -3.283559754469155E1  -2.805509124636388E1  
 1.212836185819071E11   -3.063571949814994E1  -3.341471071017021E1  -1.739091737187250E1   9.447430797702482E1  -1.737874602131699E1   6.469391874334482E1  -2.879582548421889E1  -4.084708852047395E1  
 1.212958435207824E11   -3.106447315414589E1  -4.510515939048641E1  -1.740579822599546E1   4.684839746759757E1  -1.738943056535749E1   1.782931044579925E1  -2.796130538658516E1  -5.218236709825904E1  
 1.213080684596577E11   -3.001243042413582E1  -3.088552731461537E1  -1.738600148675118E1  -3.601833975853613E-1  -1.738392891407464E1  -2.913710251312899E1  -2.726447261737597E1  -5.029536862721947E1  
 1.213202933985330E11   -2.587061426799139E1  -3.486325831759827E1  -1.737876641581043E1  -4.791059380842826E1  -1.741144257401356E1  -7.636390070202461E1  -2.499976902296344E1  -5.217771336103414E1  
 1.213325183374083E11   -2.334380624650222E1  -5.581656966952141E1  -1.741118862543214E1  -9.508593218171342E1  -1.742831600919912E1  -1.230615106779562E2  -2.334383312756651E1  -6.542163356052581E1  
 1.213447432762836E11   -2.293791542508652E1  -7.808630760637816E1  -1.738783347787880E1  -1.418200109821711E2  -1.738633800934178E1  -1.699328652703588E2  -2.319786379289298E1  -8.036234528556452E1  
 1.213569682151589E11   -2.380782949797974E1  -9.435641019899506E1  -1.727783533271076E1   1.708706425770212E2  -1.728664003590876E1   1.427400706084837E2  -2.373140773245608E1  -9.013737153969197E1  
 1.213691931540342E11   -2.463615317262764E1  -1.023358790341045E2  -1.722767784873594E1   1.231555155021590E2  -1.722119007194718E1   9.504463052536207E1  -2.424426027360252E1  -9.673599626376566E1  
 1.213814180929095E11   -2.496102393882723E1  -1.115683013950142E2  -1.725419345363071E1   7.523342518060467E1  -1.724914796701712E1   4.768331665876333E1  -2.466320381120523E1  -1.049221063189481E2  
 1.213936430317848E11   -2.617383080752931E1  -1.228461084974572E2  -1.725427020235592E1   2.785410887546538E1  -1.722664226390831E1   7.283754806275619E-1  -2.607727217308588E1  -1.137254907568744E2  
 1.214058679706601E11   -2.817560109304018E1  -1.233485490456359E2  -1.718995482435290E1  -1.948241461975926E1  -1.716548615383438E1  -4.665971539319185E1  -2.847243060343462E1  -1.130756681414827E2  
 1.214180929095355E11   -2.814127982478733E1  -1.153974381347632E2  -1.716064005770350E1  -6.737948003344496E1  -1.715402493460878E1  -9.450891318589490E1  -2.911779641068426E1  -1.012793147759124E2  
 1.214303178484108E11   -2.703422749158332E1  -1.215210088580102E2  -1.720498779080349E1  -1.146417280290391E2  -1.720054441306264E1  -1.420619718083376E2  -2.868319032588785E1  -1.004882043392070E2  
 1.214425427872861E11   -2.792814503844123E1  -1.350447878006892E2  -1.723250074984506E1  -1.619174371737190E2  -1.722745482846641E1   1.708846426738685E2  -2.974434241918922E1  -1.021614514663911E2  
 1.214547677261614E11   -3.020862075050436E1  -1.305472822183600E2  -1.721101756843901E1   1.508924756076638E2  -1.720994497398584E1   1.234175677527216E2  -3.054131149961612E1  -8.638259840368251E1  
 1.214669926650367E11   -2.857286072274189E1  -1.180797581812531E2  -1.723826526771886E1   1.034989208962349E2  -1.724080392957703E1   7.584656896877776E1  -2.815069839604933E1  -7.758485834231526E1  
 1.214792176039120E11   -2.638851698944267E1  -1.323831465290630E2  -1.730504108933692E1   5.650537351479374E1  -1.729227236969954E1   2.887002732495505E1  -2.657743767718061E1  -8.500951320509201E1  
 1.214914425427873E11   -2.685429321792456E1  -1.552409205420652E2  -1.728499534680643E1   1.000557537196782E1  -1.725165664579539E1  -1.827070645365938E1  -2.688298149297432E1  -9.181041262054040E1  
 1.215036674816626E11   -2.990353528270684E1  -1.710676908609777E2  -1.718367864597578E1  -3.720786970346728E1  -1.715366428587832E1  -6.536151857509611E1  -2.681448308209493E1  -9.001803534001797E1  
 1.215158924205379E11   -3.287785081422112E1  -1.674303116049365E2  -1.714289220974673E1  -8.460408996427232E1  -1.711854990780289E1  -1.131032423444478E2  -2.598991939903212E1  -9.177189332530848E1  
 1.215281173594132E11   -3.342283345794801E1  -1.708617478178902E2  -1.713151737117367E1  -1.317689265134983E2  -1.710835458408328E1  -1.607181789869510E2  -2.589135280588263E1  -9.838328227711391E1  
 1.215403422982885E11   -3.777615267366285E1   1.643662260889727E2  -1.707397379357553E1  -1.787211284556287E2  -1.706847619426707E1   1.517916083664180E2  -2.677837252972790E1  -9.754486811044967E1  
 1.215525672371638E11   -4.694033512369772E1  -1.989143243841141E1  -1.705604925201374E1   1.336403769470940E2  -1.703984653871111E1   1.042110723674440E2  -2.589807581642678E1  -8.880000186643660E1  
 1.215647921760391E11   -3.311947415143887E1  -6.776260846643021E1  -1.709569876686192E1   8.635131514315059E1  -1.708230543295329E1   5.661450344134263E1  -2.384342160325954E1  -9.317016051484012E1  
 1.215770171149144E11   -3.026535867783054E1  -9.766225187507786E1  -1.711214798835122E1   3.960529446486895E1  -1.709213973591879E1   9.231426209190756  -2.300390407500327E1  -1.062440355235111E2  
 1.215892420537897E11   -3.089622750528627E1  -1.143271271794372E2  -1.703166189285137E1  -7.427157391151388  -1.702156392487160E1  -3.824680134099761E1  -2.343804091072243E1  -1.173893141449919E2  
 1.216014669926650E11   -3.148928159065164E1  -1.091301807809197E2  -1.698787743450076E1  -5.495039680813206E1  -1.699768909791853E1  -8.636485512037815E1  -2.405740140781797E1  -1.218021953767288E2  
 1.216136919315403E11   -2.955860313283789E1  -1.076272570608866E2  -1.700817298920863E1  -1.023206157149919E2  -1.700508808318369E1  -1.339467567068446E2  -2.385661114468975E1  -1.266591136657944E2  
 1.216259168704157E11   -2.824369985780491E1  -1.194248415181664E2  -1.702835184540511E1  -1.492408715518513E2  -1.703009611264979E1   1.785728506481037E2  -2.391493175207922E1  -1.384121610112988E2  
 1.216381418092910E11   -2.854391236891561E1  -1.269963591433356E2  -1.700923775714628E1   1.634962232153727E2  -1.701195408679238E1   1.316013478004278E2  -2.554149950774057E1  -1.504274450021104E2  
 1.216503667481663E11   -2.777271556998636E1  -1.273308819694352E2  -1.698984226164304E1   1.161643658929845E2  -1.698388108011569E1   8.369560051620967E1  -2.801420860870618E1  -1.533904968356752E2  
 1.216625916870416E11   -2.614789595995327E1  -1.383053387084682E2  -1.700410856639820E1   6.885337069295044E1  -1.701487705561635E1   3.612039231913127E1  -2.985035663769867E1  -1.472928334924869E2  
 1.216748166259169E11   -2.600815661705117E1  -1.588004163844073E2  -1.700903709842402E1   2.226157671179160E1  -1.701032784881467E1  -1.110022511571392E1  -3.121907939181187E1  -1.412537601576018E2  
 1.216870415647922E11   -2.821519921822708E1  -1.753882947431152E2  -1.694841797231032E1  -2.502806015908643E1  -1.696382370303184E1  -5.884579085550767E1  -3.215667819283552E1  -1.217792328041347E2  
 1.216992665036675E11   -3.104684752130407E1  -1.717766099642562E2  -1.695542006815965E1  -7.254602436797507E1  -1.697099404523667E1  -1.066381030948027E2  -2.968343156303653E1  -1.093054848866740E2  
 1.217114914425428E11   -3.025323365379659E1  -1.661690113254944E2  -1.701760708265155E1  -1.200014864613413E2  -1.703605432681930E1  -1.539767642948591E2  -2.753351591871113E1  -1.167023847952060E2  
 1.217237163814181E11   -2.994450572833428E1   1.784964586784076E2  -1.702153384560929E1  -1.664669565612823E2  -1.701867384559564E1   1.587965074867263E2  -2.792117780119692E1  -1.263986559396712E2  
 1.217359413202934E11   -3.333248615623397E1   1.649358544308596E2  -1.694505411069431E1   1.462948960984065E2  -1.696666537689437E1   1.111950984222460E2  -2.908489051257444E1  -1.218848209112139E2  
 1.217481662591687E11   -3.654710066770983E1  -1.675676253806934E2  -1.695643307777380E1   9.884703365055941E1  -1.697086371584485E1   6.369626165490445E1  -2.766784146660614E1  -1.126559858493292E2  
 1.217603911980440E11   -3.252806449407407E1  -1.611617174216503E2  -1.701660313134441E1   5.171989638592834E1  -1.703593296662008E1   1.616269511036596E1  -2.562600985441114E1  -1.192275949600446E2  
 1.217726161369193E11   -3.194694809102746E1   1.724274791082004E2  -1.698603664729446E1   5.006523393345231  -1.701896891880222E1  -3.055662052204223E1  -2.526969485896841E1  -1.309866641215533E2  
 1.217848410757946E11   -3.632532749899512E1   1.409285395256411E2  -1.691956115009094E1  -4.214007110695607E1  -1.694991624356024E1  -7.806172425478678E1  -2.572558958288949E1  -1.358300485195433E2  
 1.217970660146699E11   -7.596541624476107E1  -1.353968441023408E2  -1.690482057670637E1  -8.975637752084784E1  -1.692580809499431E1  -1.257862862589015E2  -2.507756623176372E1  -1.388659637820335E2  
 1.218092909535452E11   -3.858107705306435E1  -9.153890589498253E1  -1.693653323070148E1  -1.369112008592759E2  -1.694817387191720E1  -1.733066315897076E2  -2.434520062483445E1  -1.515101319852328E2  
 1.218215158924205E11   -3.463171796875761E1  -9.761984462398459E1  -1.690173946694279E1   1.760024963105850E2  -1.690797644058736E1   1.394928123455243E2  -2.521662957749774E1  -1.687967200357793E2  
 1.218337408312958E11   -3.035688872017020E1  -1.010490525778755E2  -1.686480181740190E1   1.284855943498332E2  -1.687063593320212E1   9.189365803688681E1  -2.826944122885227E1  -1.793234203867943E2  
 1.218459657701711E11   -2.707392122950628E1  -1.196124303578622E2  -1.691035014672300E1   8.074441412275981E1  -1.691809115351123E1   4.443070707341317E1  -3.125406981372609E1  -1.651164669320574E2  
 1.218581907090465E11   -2.583023842453822E1  -1.443589000245710E2  -1.695725601327032E1   3.390213014415045E1  -1.697050996094668E1  -2.509209337502064  -2.993122206769536E1  -1.532501551902920E2  
 1.218704156479218E11   -2.687573243011918E1  -1.659027029082785E2  -1.691705755798965E1  -1.314023370887287E1  -1.693100210357168E1  -4.928819964886677E1  -2.944789585162912E1  -1.580480170678460E2  
 1.218826405867971E11   -2.929509744728116E1  -1.704346606917636E2  -1.684745927939458E1  -6.051404745524400E1  -1.685317633526377E1  -9.684717571055208E1  -3.004253127076841E1  -1.576239890984778E2  
 1.218948655256724E11   -2.909772660658456E1  -1.616689015920424E2  -1.686547264594804E1  -1.080887897473446E2  -1.688281031061865E1  -1.442930148108052E2  -2.925086074813114E1  -1.537190029012728E2  
 1.219070904645477E11   -2.757438156878052E1  -1.695651745672149E2  -1.688804545306057E1  -1.552901753332720E2  -1.688539537387819E1   1.686709857080217E2  -2.819632668218501E1  -1.630418258329787E2  
 1.219193154034230E11   -2.807167508361343E1   1.790574752767256E2  -1.681064983644237E1   1.573510704224435E2  -1.682366684448149E1   1.215227237296884E2  -2.914178126702513E1  -1.765116599984407E2  
 1.219315403422983E11   -2.902425500213574E1   1.785131570905359E2  -1.677251774396465E1   1.096007508016357E2  -1.678140614930097E1   7.395921677826516E1  -3.131936176004462E1   1.780070770719973E2  
 1.219437652811736E11   -2.799081133385456E1   1.785213788321420E2  -1.680902722220093E1   6.177647496367567E1  -1.683068137381394E1   2.632787266326465E1  -3.264643631550756E1  -1.753746902836155E2  
 1.219559902200489E11   -2.726644085182685E1   1.656680702965699E2  -1.682756689519619E1   1.468091563771379E1  -1.685021066618971E1  -2.039192731300182E1  -3.307827916036435E1  -1.789027947605096E2  
 1.219682151589242E11   -2.882730522323115E1   1.510490846121277E2  -1.678279073444382E1  -3.263981318524391E1  -1.680141640973116E1  -6.781809947557197E1  -3.691709792673410E1   1.776037025750812E2  
 1.219804400977995E11   -3.132974493985405E1   1.601105686270298E2  -1.677914185547484E1  -8.029351247321689E1  -1.678169135136548E1  -1.151779572681285E2  -3.962062243222549E1  -1.239690189205732E2  
 1.219926650366748E11   -2.915036840054265E1   1.714941331885971E2  -1.684328782913185E1  -1.276958265226899E2  -1.686307953174941E1  -1.621771432391909E2  -3.256977877713266E1  -1.134379724167188E2  
 1.220048899755501E11   -2.726246018040757E1   1.563628914014338E2  -1.686138825221362E1  -1.745777088141645E2  -1.688099603735144E1   1.511174380579249E2  -3.008693782376162E1  -1.272498286418981E2  
 1.220171149144254E11   -2.839316784868818E1   1.369042096654017E2  -1.679546089461035E1   1.381871377316138E2  -1.680118527193095E1   1.039556341700263E2  -2.930974007877649E1  -1.318897598351863E2  
 1.220293398533007E11   -3.214786706415509E1   1.373614787833963E2  -1.678509177322745E1   9.025932553667613E1  -1.678235805146987E1   5.642321582406119E1  -2.757377810922586E1  -1.321835921286515E2  
 1.220415647921760E11   -3.134261198444280E1   1.640468834434835E2  -1.683355752798146E1   4.294308343341122E1  -1.684284023612320E1   9.577312765176176  -2.545039101478959E1  -1.434257849733026E2  
 1.220537897310514E11   -2.818076635921831E1   1.576430216245365E2  -1.679864990888026E1  -3.845486044025523  -1.680786201954884E1  -3.699463544044265E1  -2.453500734697383E1  -1.599133758748393E2  
 1.220660146699267E11   -2.735297605533499E1   1.434772004834913E2  -1.667557971374460E1  -5.140179003748481E1  -1.668196297989405E1  -8.413268839840546E1  -2.470151319689953E1  -1.737307430903285E2  
 1.220782396088020E11   -2.760924420270059E1   1.342242642120835E2  -1.662541982045720E1  -9.911467689381910E1  -1.663655619863908E1  -1.317636215977710E2  -2.511215309755358E1   1.763013606542450E2  
 1.220904645476773E11   -2.748711951289012E1   1.279352810584492E2  -1.664911645147642E1  -1.466932659601629E2  -1.665676422889489E1  -1.791514734220955E2  -2.511900368186840E1   1.659090387560460E2  
 1.221026894865526E11   -2.747683024802887E1   1.169655139412022E2  -1.661236553338818E1   1.660452246311538E2  -1.663147852745003E1   1.338001011535519E2  -2.561964676998066E1   1.511737102131110E2  
 1.221149144254279E11   -2.878988430950685E1   1.075922123102406E2  -1.654478096306809E1   1.184374030575739E2  -1.656405666702993E1   8.627678451465876E1  -2.734835884034882E1   1.371576771170856E2  
 1.221271393643032E11   -2.981868227196320E1   1.122399930894071E2  -1.655343830082881E1   7.043860057284772E1  -1.657132894682033E1   3.873917173661080E1  -3.022775076047341E1   1.324530173663764E2  
 1.221393643031785E11   -2.836907151979470E1   1.116422119848747E2  -1.661105162570761E1   2.324542928951844E1  -1.660959110159755E1  -8.727451989385397  -3.173914447181497E1   1.398366794670840E2  
 1.221515892420538E11   -2.744217667419230E1   9.562086571454628E1  -1.659177225036026E1  -2.432478516887822E1  -1.660163174226509E1  -5.532829603345821E1  -3.231722488270957E1   1.381511402352649E2  
 1.221638141809291E11   -2.925159542721528E1   7.519516991834054E1  -1.655146707175665E1  -7.178486002437897E1  -1.656512081273875E1  -1.028771990617302E2  -3.524765483227413E1   1.407912525235614E2  
 1.221760391198044E11   -3.393475505830671E1   7.340440341428393E1  -1.656584681417246E1  -1.196674122310429E2  -1.658766972336577E1  -1.504965335407558E2  -3.483781638052446E1   1.728733689982143E2  
 1.221882640586797E11   -3.379282245008690E1   1.082497691897402E2  -1.660371408302374E1  -1.669694715348340E2  -1.662164038738415E1   1.628209378234065E2  -3.087246461389799E1   1.726508074084776E2  
 1.222004889975550E11   -3.032451211273872E1   1.048611648161906E2  -1.654455984536348E1   1.459914711522852E2  -1.656627068399651E1   1.157298843042180E2  -2.938344598207380E1   1.596198337898190E2  
 1.222127139364303E11   -2.947285659430264E1   9.137704301750436E1  -1.648585103429842E1   9.819398353132185E1  -1.650210855603432E1   6.838962403916736E1  -2.924072433216104E1   1.495175755451728E2  
 1.222249388753056E11   -2.953788916239830E1   8.526206663548783E1  -1.653878126130908E1   5.031122122716901E1  -1.653967441742549E1   2.069062274817411E1  -2.889377823670916E1   1.459566573485723E2  
 1.222371638141809E11   -2.863874593018197E1   7.779975501540659E1  -1.658154240132140E1   3.368390558093541  -1.659780685113274E1  -2.635216098528434E1  -2.771437129577592E1   1.340846144209052E2  
 1.222493887530562E11   -2.876735631576028E1   6.023870464923399E1  -1.654266620833939E1  -4.388572668780166E1  -1.654158423691258E1  -7.329563665540887E1  -2.776943640306038E1   1.152753077905418E2  
 1.222616136919315E11   -3.135312287139996E1   4.706419201016593E1  -1.650443743626282E1  -9.191465878430689E1  -1.650746878167334E1  -1.209329160027439E2  -2.992213697142031E1   9.605282770397510E1  
 1.222738386308068E11   -3.398498818246279E1   6.673107589147011E1  -1.656377223907675E1  -1.392304109603952E2  -1.658190664472891E1  -1.685860325331276E2  -3.405291488504187E1   9.525157576783593E1  
 1.222860635696821E11   -3.015746783160718E1   7.597290161167005E1  -1.659866430741145E1   1.738984816389110E2  -1.660863934104956E1   1.445553300226074E2  -3.493351115422632E1   1.118685753784590E2  
 1.222982885085575E11   -2.790755057911530E1   5.624989634098111E1  -1.652567878586908E1   1.268904948626524E2  -1.655097821161771E1   9.724240950218012E1  -3.494238222001854E1   1.118096180918539E2  
 1.223105134474328E11   -2.847581325032500E1   3.345830400413426E1  -1.650903349098863E1   7.933415912123778E1  -1.651595905366243E1   4.970492200447779E1  -3.671822760558214E1   1.259658437844009E2  
 1.223227383863081E11   -3.110659751640309E1   2.258493424145772E1  -1.655949427983047E1   3.198065934038418E1  -1.656828178268006E1   2.300290535110776  -3.297585542067881E1   1.465853477201306E2  
 1.223349633251834E11   -3.169277254441807E1   3.090275842642335E1  -1.657389723403768E1  -1.474103320888678E1  -1.658325751206962E1  -4.430113485660790E1  -2.921928694035195E1   1.333223897626151E2  
 1.223471882640587E11   -3.030621267494880E1   2.364820274591039E1  -1.648413265558490E1  -6.164687278133005E1  -1.649409716426803E1  -9.148873318199665E1  -2.856559649498195E1   1.142815487967214E2  
 1.223594132029340E11   -3.063621747818672E1   6.248681058663276  -1.644142366908326E1  -1.094159647765400E2  -1.645136014641826E1  -1.391872779615753E2  -2.912581324056934E1   1.063997346937751E2  
 1.223716381418093E11   -3.249140892093594E1  -2.818964820458767  -1.645679512020920E1  -1.570333401573316E2  -1.645957014037836E1   1.733322403233016E2  -2.853702054890910E1   1.075044020996936E2  
 1.223838630806846E11   -3.298600641861896E1  -4.152768067263414  -1.641001988828556E1   1.559716984246944E2  -1.643014903021353E1   1.262458738673224E2  -2.661827757306899E1   9.870457627592300E1  
 1.223960880195599E11   -3.323144161175996E1  -1.784720687459845E1  -1.635010991414268E1   1.083443827827732E2  -1.637295936075908E1   7.841383937299490E1  -2.569464027691854E1   8.204705612032190E1  
 1.224083129584352E11   -3.613822063934598E1  -3.714358227324886E1  -1.635618505300317E1   6.057780054372000E1  -1.637860327993590E1   3.041584721361892E1  -2.616033221277268E1   6.666083847699336E1  
 1.224205378973105E11   -4.186668476839817E1  -1.108207138270692E1  -1.643029596998779E1   1.331926068150976E1  -1.645091533678163E1  -1.691072884735478E1  -2.680899542518771E1   6.062051465879679E1  
 1.224327628361858E11   -3.553719138691103E1   5.137668628437177  -1.641142785789804E1  -3.351318098448712E1  -1.642081742823718E1  -6.385264191589079E1  -2.591399317491409E1   5.450157951265656E1  
 1.224449877750611E11   -3.303479424286058E1  -2.622981014750350E1  -1.638547879562551E1  -8.101530969321466E1  -1.638578001505199E1  -1.116422372865642E2  -2.528196891850894E1   3.856255038495896E1  
 1.224572127139364E11   -3.505252148859297E1  -6.664528612920843E1  -1.643219888724520E1  -1.285797552915910E2  -1.642926784638328E1  -1.593455192150485E2  -2.585785571897638E1   2.074815252610322E1  
 1.224694376528117E11   -4.380010931327406E1  -1.154218061333464E2  -1.651449145720056E1  -1.755618063341098E2  -1.650237694329205E1   1.534805682463248E2  -2.766066194464110E1   1.009290647598162E1  
 1.224816625916870E11   -4.523204944071639E1   1.802446457808741E1  -1.650289180642174E1   1.376807543559210E2  -1.650199176832934E1   1.065398678130015E2  -2.839164401772900E1   9.246443803023757  
 1.224938875305624E11   -3.822087776823300E1  -3.811784743148198E1  -1.644071323303077E1   9.046130686066208E1  -1.644191565907824E1   5.929784148592911E1  -2.773354295656846E1   1.409676586616976E-1  
 1.225061124694377E11   -3.791544607715942E1  -1.069314564172221E2  -1.647330445775469E1   4.316858473358974E1  -1.648433500516171E1   1.144649901296403E1  -2.836385642497540E1  -1.846339550617378E1  
 1.225183374083130E11   -3.757929966991306E1   1.669181291475602E2  -1.650409529528093E1  -3.430446647366547  -1.650144908588024E1  -3.556674792061059E1  -3.076026347562647E1  -3.207076021753131E1  
 1.225305623471883E11   -3.583970179063167E1   9.853147475625936E1  -1.638853218293738E1  -5.020569856135545E1  -1.640803396179147E1  -8.217899626142555E1  -3.305444472312436E1  -3.353955788168030E1  
 1.225427872860636E11   -3.540363061144598E1   5.783591585717653E1  -1.629466608883328E1  -9.786440074094425E1  -1.631078983924889E1  -1.301978606261592E2  -3.435896412129866E1  -3.487493670746876E1  
 1.225550122249389E11   -3.570024732536363E1   3.717817072444436E1  -1.632076781812614E1  -1.453984122100249E2  -1.632159488940411E1  -1.779776289290601E2  -3.601593534431408E1  -4.154777105800272E1  
 1.225672371638142E11   -3.412396678541353E1   2.934303231698255E1  -1.635067120792768E1   1.676538152939182E2  -1.635112696784582E1   1.344849409972583E2  -3.897227352916743E1  -2.578839690005961E1  
 1.225794621026895E11   -3.131696144722535E1   2.950470198953546  -1.631338250059344E1   1.204223583958577E2  -1.630842072927443E1   8.718580232139078E1  -3.610129229274486E1  -1.342655324416587E1  
 1.225916870415648E11   -3.067022873454646E1  -3.444300913050498E1  -1.628810585010954E1   7.287553629052137E1  -1.630148195364534E1   3.929253320083205E1  -3.435354117944790E1  -3.554643251607892E1  
 1.226039119804401E11   -3.216406933888322E1  -7.634592218187171E1  -1.635752089514409E1   2.567120329786772E1  -1.637068758019712E1  -8.127604022257144  -3.594076804603670E1  -7.094342356490513E1  
 1.226161369193154E11   -3.715731397799815E1  -1.181190226359174E2  -1.638772767111803E1  -2.128580377707562E1  -1.638417344965750E1  -5.474013912114636E1  -4.216049519703240E1  -1.182216223747351E2  
 1.226283618581907E11   -4.500096434416133E1  -1.359523467419232E2  -1.628058581980361E1  -6.792319254776221E1  -1.629356020207835E1  -1.020308046831060E2  -4.706401273000585E1   1.243704897740581E2  
 1.226405867970660E11   -4.799109174456278E1  -1.288230013862990E2  -1.621970069178811E1  -1.155813112632169E2  -1.623013411912865E1  -1.497612126102457E2  -4.289271243383680E1   7.308562346064038E1  
 1.226528117359413E11   -4.657843645096662E1   1.799894191605224E2  -1.625195065891986E1  -1.627963134252161E2  -1.625062481771149E1   1.625604438820331E2  -4.072554563360060E1   7.499542336008852E1  
 1.226650366748166E11   -4.499403611262583E1   1.063691069756179E2  -1.624352678250389E1   1.499584817387508E2  -1.624273907109357E1   1.154663101183886E2  -3.564089095391901E1   7.551819828190351E1  
 1.226772616136919E11   -4.872511910582180E1   6.419994941022900E1  -1.616961170926380E1   1.028474421265200E2  -1.617059912614522E1   6.815730692591146E1  -3.179601585253527E1   5.721794707517562E1  
 1.226894865525672E11   -4.669560235221248E1   1.175344264927438E2  -1.613318538274649E1   5.505681845770275E1  -1.613283364289504E1   2.026554704334722E1  -2.994828594026895E1   3.709100992213120E1  
 1.227017114914425E11   -3.773850675833977E1   9.537388553569379E1  -1.617191842961562E1   7.512238805279554  -1.616819386040548E1  -2.733343662391284E1  -2.953985398841621E1   2.193628111178577E1  
 1.227139364303178E11   -3.334676857637592E1   5.415799570698013E1  -1.615494508203996E1  -3.959134454742277E1  -1.616359551385139E1  -7.441711174000999E1  -2.909139961441469E1   9.503847729913929  
 1.227261613691932E11   -3.245187617220852E1   1.468944345767718E1  -1.610252102746925E1  -8.706742519237608E1  -1.611945626241603E1  -1.220345360181360E2  -2.902080871124381E1  -5.178533480929903  
 1.227383863080685E11   -3.444535912025319E1  -1.689121446013001E1  -1.611536011651547E1  -1.349096780655471E2  -1.614444232332814E1  -1.696988762408031E2  -2.996065010289216E1  -1.915551897559977E1  
 1.227506112469438E11   -3.811648926693887E1  -1.819048892015979E1  -1.620892253352998E1   1.776603365146515E2  -1.621682632930608E1   1.429855396445771E2  -3.243139805111316E1  -2.181187976494154E1  
 1.227628361858191E11   -3.472477754516834E1  -1.143710081635653E1  -1.620260410482360E1   1.308114065431896E2  -1.622109343680937E1   9.623869437851604E1  -3.236511687070765E1  -9.896658468264553  
 1.227750611246944E11   -3.218450795512084E1  -4.273821400456211E1  -1.613026617789912E1   8.336286756109085E1  -1.615212945139365E1   4.891477706096848E1  -3.055899428127150E1  -1.523821703968430E1  
 1.227872860635697E11   -3.244460005130073E1  -8.166238077265049E1  -1.616430192584732E1   3.543960793902257E1  -1.617437692228350E1   1.334003132409265  -3.054331044908513E1  -3.087692000012063E1  
 1.227995110024450E11   -3.584876421240375E1  -1.186144440135157E2  -1.624226563462010E1  -1.196179936690125E1  -1.624524841951068E1  -4.560873037294812E1  -3.319543904612907E1  -3.974126003560428E1  
 1.228117359413203E11   -4.310890419881353E1  -1.262541467135535E2  -1.620055432831058E1  -5.882729746631533E1  -1.621174659464037E1  -9.237568197991821E1  -3.471447794605714E1  -2.657509423176596E1  
 1.228239608801956E11   -4.018923509516623E1  -1.060966662630984E2  -1.614454490804470E1  -1.065579579555289E2  -1.616037632675195E1  -1.398717990166834E2  -3.380534688172929E1  -1.904864928919990E1  
 1.228361858190709E11   -3.772358626667944E1  -1.417279771821461E2  -1.618564031266337E1  -1.543277164089089E2  -1.621556629539828E1   1.725793041649504E2  -3.325942631950041E1  -1.807887814289668E1  
 1.228484107579462E11   -3.868038201715206E1   1.642312761724972E2  -1.624515254365798E1   1.586632752258898E2  -1.626937485143736E1   1.257085163210348E2  -3.244949800596390E1  -1.078013959664853E1  
 1.228606356968215E11   -4.755516942600292E1   9.567042065699077E1  -1.618460559302072E1   1.115821771477740E2  -1.622165338887421E1   7.919573948160532E1  -3.011079966507616E1  -1.329132830571065E1  
 1.228728606356968E11   -4.519717864373293E1  -1.036910186987673E2  -1.613688313042188E1   6.387065078847496E1  -1.615952872894874E1   3.141121378852254E1  -2.874160973185688E1  -2.628849715077619E1  
 1.228850855745721E11   -3.788771693499144E1  -1.691848765638183E2  -1.618962695372323E1   1.624335527639429E1  -1.621191442182491E1  -1.576607780368185E1  -2.890622204843444E1  -3.937833896199002E1  
 1.228973105134474E11   -3.586511931890090E1   1.316788960193221E2  -1.624470331018093E1  -3.090477062521256E1  -1.626088328361817E1  -6.258838817175079E1  -2.982255660242502E1  -4.381094886242166E1  
 1.229095354523227E11   -3.864396985818563E1   7.214481452588680E1  -1.617381616308093E1  -7.754179028256996E1  -1.618690204299514E1  -1.090958453960117E2  -2.945987408012536E1  -4.597569165510850E1  
 1.229217603911980E11   -4.855140309463430E1  -3.527499784462623E1  -1.610592359198277E1  -1.254505271374445E2  -1.611500528802545E1  -1.562364687136095E2  -2.936925493738389E1  -5.529418163081696E1  
 1.229339853300734E11   -4.037694207260243E1  -1.630552047469882E2  -1.610602403882241E1  -1.732722060595709E2  -1.610479711170388E1   1.562416858105408E2  -3.065775984758261E1  -6.470525824993419E1  
 1.229462102689487E11   -3.688965096035436E1   1.514224944005407E2  -1.608112599368138E1   1.395625023503236E2  -1.608827656632981E1   1.094753813578232E2  -3.229141335489074E1  -6.337743449405660E1  
 1.229584352078240E11   -3.724099580975631E1   1.386596735112747E2  -1.601716996173654E1   9.202880695015502E1  -1.602220751034576E1   6.178339802718687E1  -3.258264506764602E1  -5.571081316989271E1  
 1.229706601466993E11   -3.416125404652129E1   1.387399950336393E2  -1.602052369895365E1   4.417017064151742E1  -1.603049264610495E1   1.436703337628081E1  -3.196132207394175E1  -5.121002124917538E1  
 1.229828850855746E11   -3.002982084316940E1   1.186834624761117E2  -1.608370852692184E1  -3.502559045872054  -1.607424570438624E1  -3.288963546026476E1  -3.089851613172521E1  -5.049081135472640E1  
 1.229951100244499E11   -2.844902183125003E1   8.781971661856716E1  -1.607538095142792E1  -5.056668052037087E1  -1.606902610804290E1  -7.922924652998208E1  -2.976007496821612E1  -5.480203450379098E1  
 1.230073349633252E11   -2.916983137903176E1   6.238084993807419E1  -1.598067947021000E1  -9.775613019737570E1  -1.597214291685554E1  -1.266320193246313E2  -2.883375227993971E1  -6.631858112127802E1  
 1.230195599022005E11   -3.126741264216473E1   5.065972666731726E1  -1.595473578108692E1  -1.455721178495541E2  -1.594199621489724E1  -1.744298594435628E2  -2.932047720266355E1  -7.805320213308389E1  
 1.230317848410758E11   -3.093639172171300E1   5.452828620449688E1  -1.599794265165972E1   1.666056869206507E2  -1.599275274024583E1   1.381314573482360E2  -3.036259755252695E1  -8.423357589689090E1  
 1.230440097799511E11   -2.917609643832153E1   4.177143085245744E1  -1.600532025682693E1   1.197103201581689E2  -1.599212852080543E1   9.144732654607135E1  -3.109577676171892E1  -8.367459926754464E1  
 1.230562347188264E11   -2.955325695292468E1   2.035475289098538E1  -1.593043202349526E1   7.224835412150335E1  -1.593571754277203E1   4.397350627067697E1  -3.076324290032991E1  -8.621481034631738E1  
 1.230684596577017E11   -3.155919895987426E1   1.063115918943732E1  -1.592427633249160E1   2.431021644595269E1  -1.592696172902157E1  -3.593784167400560  -3.127087024890048E1  -9.343305372431651E1  
 1.230806845965770E11   -3.179230834983515E1   1.840127093700375E1  -1.596092546999679E1  -2.327433696295654E1  -1.597503771240121E1  -5.107270037911185E1  -3.207064016388372E1  -9.187782455468327E1  
 1.230929095354523E11   -2.942919476734651E1   7.119223776361461  -1.594427664706256E1  -7.020876365907635E1  -1.596049581823612E1  -9.813037205034998E1  -3.089638777553825E1  -8.745879452987167E1  
 1.231051344743276E11   -2.922743269145767E1  -1.888497954463700E1  -1.591826329804044E1  -1.175552427210209E2  -1.591656297471984E1  -1.455201873008971E2  -2.908060557130711E1  -9.915051880489729E1  
 1.231173594132029E11   -3.205950206111128E1  -4.494290173604517E1  -1.593890451768010E1  -1.652749433948178E2  -1.594901714369868E1   1.667569366488701E2  -2.917352730506841E1  -1.191548091521255E2  
 1.231295843520783E11   -3.827448433063894E1  -4.442546789388631E1  -1.598284027021250E1   1.477985577309133E2  -1.598422849343895E1   1.196868614095755E2  -3.073157656563539E1  -1.330314143544285E2  
 1.231418092909536E11   -3.655840058593158E1  -1.892126065846351E1  -1.593668733770188E1   1.007927273436929E2  -1.593592323009544E1   7.285376144441578E1  -3.220898754187417E1  -1.334215349320891E2  
 1.231540342298289E11   -3.488682807776890E1  -3.906795913551544E1  -1.587217444836603E1   5.277361382746753E1  -1.588064395400312E1   2.511962237417327E1  -3.146108665894679E1  -1.420519645190748E2  
 1.231662591687042E11   -3.736026883419718E1  -6.608718484598181E1  -1.590824185813646E1   5.092066312434180  -1.590969018920185E1  -2.267505710936696E1  -3.196375029440279E1  -1.612336782874338E2  
 1.231784841075795E11   -4.397469352528076E1  -6.122593073019132E1  -1.595620883556126E1  -4.172441030032147E1  -1.596532515176342E1  -6.967585869183650E1  -3.463603500838538E1   1.798673080879109E2  
 1.231907090464548E11   -4.198513349680708E1  -4.742951118826336E1  -1.589956151694337E1  -8.891537439215223E1  -1.591199530060004E1  -1.168125210325240E2  -3.794910449494613E1  -1.771367557404531E2  
 1.232029339853301E11   -4.068752457051258E1  -8.395726861683980E1  -1.586916809654835E1  -1.367688905417611E2  -1.587633961972380E1  -1.647062241723977E2  -3.708543675367680E1  -1.742830176065671E2  
 1.232151589242054E11   -4.325777393804026E1  -1.548921416903170E2  -1.594412990948610E1   1.756987549509330E2  -1.594401154905704E1   1.477402632091663E2  -3.602880970613734E1   1.617060085805963E2  
 1.232273838630807E11   -4.481377279539765E1   1.196194744045904E2  -1.598554087226203E1   1.288392612768786E2  -1.598567003471634E1   1.006429792137864E2  -3.822621169307075E1   1.271980845765667E2  
 1.232396088019560E11   -5.726182380772610E1   1.095736903142189E2  -1.592779041962349E1   8.191912474353146E1  -1.593739903604601E1   5.334514257977084E1  -4.509827873902929E1   9.831934212481099E1  
 1.232518337408313E11   -3.949888371660608E1   1.611344116630876E2  -1.592598090138614E1   3.424001993973918E1  -1.592383203317415E1   5.533214422290630  -5.103971340408816E1   1.580486952664566E2  
 1.232640586797066E11   -3.237672955315731E1   1.222300170171914E2  -1.602073371647227E1  -1.292577611632270E1  -1.601365679775006E1  -4.191855144345279E1  -4.532266064312401E1   1.593098465136275E2  
 1.232762836185819E11   -2.987686785232059E1   8.298874909315228E1  -1.603243464067180E1  -5.933956247455379E1  -1.603877018316903E1  -8.888856723965115E1  -4.714980043315086E1   1.431944641345214E2  
 1.232885085574572E11   -3.050703161070692E1   5.708782764156133E1  -1.595141896500263E1  -1.065209564511403E2  -1.595226900565226E1  -1.359902260352258E2  -4.306404018413076E1   1.776504714131078E2  
 1.233007334963325E11   -3.161015728992703E1   5.301247251763908E1  -1.593585785845388E1  -1.543251154589299E2  -1.592996779729912E1   1.762742082245698E2  -3.666129974483727E1   1.544247709408863E2  
 1.233129584352078E11   -2.973991744538739E1   5.305621132827251E1  -1.601331524688796E1   1.585682587294224E2  -1.601508761427473E1   1.285423742754944E2  -3.382888998108226E1   1.225335702950213E2  
 1.233251833740831E11   -2.794298821929758E1   3.495472544996218E1  -1.600596093125355E1   1.119538684284338E2  -1.600200559931052E1   8.169693340729626E1  -3.371140388863965E1   9.199461062844084E1  
 1.233374083129584E11   -2.877635432953069E1   1.683608557527333E1  -1.591335071457945E1   6.500204343438013E1  -1.592873376914751E1   3.437211950488953E1  -3.534796966890396E1   8.208812660078978E1  
 1.233496332518337E11   -2.990208144750066E1   1.627913700513314E1  -1.590326738416254E1   1.748846244971173E1  -1.590452720869988E1  -1.355888934073434E1  -3.377444269255290E1   8.766724716632471E1  
 1.233618581907091E11   -2.809837269517285E1   1.787517361186385E1  -1.597974095341628E1  -2.969046108652490E1  -1.597429442642859E1  -6.070084702962888E1  -3.094105223209779E1   7.223040452015860E1  
 1.233740831295844E11   -2.639176183780743E1  -1.175467629559073  -1.596322117135638E1  -7.640984221475517E1  -1.597747696404968E1  -1.077810475966216E2  -3.009233418588554E1   4.631937264268416E1  
 1.233863080684597E11   -2.745913175990306E1  -2.590719588511756E1  -1.589229039856032E1  -1.234788679855237E2  -1.588787261422316E1  -1.549605575333100E2  -3.225827035205742E1   2.802534530945347E1  
 1.233985330073350E11   -3.113007101672208E1  -3.660384696942019E1  -1.588444902175383E1  -1.710209915630470E2  -1.588209602490700E1   1.571595273515426E2  -3.487552666840845E1   3.616121817278612E1  
 1.234107579462103E11   -3.226206040992538E1  -1.349120087815163E1  -1.592658896751755E1   1.418840842429844E2  -1.592454176744735E1   1.098760216846379E2  -3.280625523293151E1   4.685942274899931E1  
 1.234229828850856E11   -2.904161343785802E1  -1.965880897307897E1  -1.588038490465226E1   9.506930959857965E1  -1.588954514282390E1   6.282915338830481E1  -3.155222936688161E1   3.566206870490381E1  
 1.234352078239609E11   -2.889490820646453E1  -4.141231540151058E1  -1.581177157719206E1   4.747013873023457E1  -1.581146868655184E1   1.550363116319745E1  -3.276561394565649E1   3.527488444649177E1  
 1.234474327628362E11   -3.109498876126706E1  -5.632665110736250E1  -1.581856861222631E1  -2.898078489969119E-1  -1.581844684828713E1  -3.229517613547322E1  -3.075276186780701E1   4.913176616725666E1  
 1.234596577017115E11   -3.261394421358531E1  -5.460353752683729E1  -1.584687952715643E1  -4.742717688902900E1  -1.584228602800322E1  -7.951396969032149E1  -2.720890304255932E1   4.091101587667099E1  
 1.234718826405868E11   -3.162761385550005E1  -6.879100069594206E1  -1.582415746918927E1  -9.470610066708743E1  -1.581644522031890E1  -1.268800759941978E2  -2.570678083212322E1   2.159155289929552E1  
 1.234841075794621E11   -3.383684480377726E1  -1.098134569578512E2  -1.581703502333174E1  -1.420688306519075E2  -1.580479546395752E1  -1.743814736377765E2  -2.577076113538802E1   5.990897256409914  
 1.234963325183374E11   -4.045803086128958E1   1.530757433182617E2  -1.589228564386510E1   1.704171024421672E2  -1.588998831017572E1   1.379264376442984E2  -2.595427009513140E1  -2.100035491279706  
 1.235085574572127E11   -3.366348866956642E1   3.981348541493404E1  -1.593854215023496E1   1.238574002734154E2  -1.593282053501419E1   9.121971794697649E1  -2.536743313891440E1  -1.194394982025139E1  
 1.235207823960880E11   -3.036945425859189E1  -1.646833123089960E1  -1.587145460333730E1   7.674364843512252E1  -1.587042744512972E1   4.451286711773724E1  -2.536645255001691E1  -3.110562364189967E1  
 1.235330073349633E11   -3.140857409027254E1  -6.406858249604532E1  -1.579643011638134E1   2.923646168337001E1  -1.580715029515043E1  -2.898294112599389  -2.749729380770006E1  -5.127515471278995E1  
 1.235452322738386E11   -3.725943578804399E1  -1.124768856277993E2  -1.581707108725517E1  -1.851338909515810E1  -1.582913771281308E1  -5.010808759776947E1  -3.215044537021430E1  -5.685443827665278E1  
 1.235574572127139E11   -5.897214839712657E1   9.211606889076678E1  -1.578959481123168E1  -6.548754408058153E1  -1.580508137371098E1  -9.718949919224077E1  -3.410260891188317E1  -3.089952336372322E1  
 1.235696821515893E11   -4.636791758430634E1  -1.001347834903913E1  -1.571394353162856E1  -1.126097596573481E2  -1.570394774471850E1  -1.444911643963386E2  -3.334859394775782E1  -2.834200060312464E1  
 1.235819070904646E11   -5.124066876814475E1   1.104722757814244E2  -1.570392264494117E1  -1.603380415234340E2  -1.570451595576202E1   1.676624327890484E2  -3.525191714866715E1  -2.013628187014169E1  
 1.235941320293399E11   -3.587609465826110E1   7.407159764135339E1  -1.578183117036704E1   1.521291163322785E2  -1.578196661455045E1   1.203998546826950E2  -3.310786305825889E1   7.104893771965317  
 1.236063569682152E11   -3.198834956093684E1   3.176133639345447E1  -1.578909234142050E1   1.054123848951704E2  -1.577148950238104E1   7.384327332147741E1  -2.925891529440496E1   6.796943785744747E-1  
 1.236185819070905E11   -3.351252825987221E1  -4.864495743926430  -1.570112585967595E1   5.822983476507976E1  -1.569147505039736E1   2.662050352592257E1  -2.840681199918078E1  -1.679591070921887E1  
 1.236308068459658E11   -4.135717205380665E1   6.954549542595189  -1.566340122490212E1   1.027616160030956E1  -1.567078174940674E1  -2.105327600310140E1  -2.967485431974559E1  -2.427362511845876E1  
 1.236430317848411E11   -3.384677723724730E1   4.911428308512770E1  -1.570187232635900E1  -3.694589444374037E1  -1.570075091375550E1  -6.832352970827299E1  -2.982408917972966E1  -1.774150207347178E1  
 1.236552567237164E11   -3.010511838885244E1   2.048026512825998E1  -1.566801065465529E1  -8.420913454351205E1  -1.566089849295248E1  -1.152565631809855E2  -2.826502262250492E1  -2.268149178589488E1  
 1.236674816625917E11   -3.121707697241792E1  -2.707579480085376  -1.559469519169359E1  -1.318201093819876E2  -1.559915417655982E1  -1.625715707176737E2  -2.860724601540792E1  -3.752427180753217E1  
 1.236797066014670E11   -3.415803974290933E1   8.482497372455162  -1.560311460688907E1  -1.797508240458367E2  -1.560161445801422E1   1.499246078246146E2  -3.094983350996482E1  -3.947131720681148E1  
 1.236919315403423E11   -2.975500729973082E1   2.048172443125366E1  -1.566740578508906E1   1.329819572763108E2  -1.567073142458604E1   1.026247198146563E2  -3.097436009485149E1  -2.367642383736387E1  
 1.237041564792176E11   -2.686521257485003E1  -4.492076704147371  -1.565633777633489E1   8.622818085542878E1  -1.564853071902551E1   5.597838160450366E1  -2.894599871147998E1  -2.817959720870997E1  
 1.237163814180929E11   -2.746797513954675E1  -3.294047328641987E1  -1.558625908809526E1   3.889995513309265E1  -1.557907767958916E1   8.663916080496927  -2.973335818776746E1  -4.315586180438204E1  
 1.237286063569682E11   -3.086945002337074E1  -4.993604354405331E1  -1.556074466313826E1  -9.023204678128092  -1.555862856356888E1  -3.868920339103825E1  -3.334394600951482E1  -3.436672354473141E1  
 1.237408312958435E11   -3.327912281481417E1  -3.835989244604424E1  -1.558727027665328E1  -5.642046147135704E1  -1.556740110205809E1  -8.593368240938695E1  -3.068231014718899E1  -5.592099461325367  
 1.237530562347188E11   -3.222446101814352E1  -4.845632052926230E1  -1.552330974668084E1  -1.036225118401714E2  -1.552569578675907E1  -1.328802361078011E2  -2.732293810749376E1  -1.543082261792306E1  
 1.237652811735941E11   -3.654814951831580E1  -8.511603658523752E1  -1.549419562423357E1  -1.513684683717054E2  -1.549903285644771E1   1.794898759748458E2  -2.680603897243264E1  -3.026539143826132E1  
 1.237775061124694E11   -4.274247043801901E1   9.706784317380071E1  -1.550420802119218E1   1.609340419061982E2  -1.552517587906613E1   1.316869027172729E2  -2.726609747986307E1  -3.604005755642682E1  
 1.237897310513447E11   -3.095012294510556E1   3.793807282160191E1  -1.554648655850331E1   1.139871606575490E2  -1.554996145736634E1   8.451891934637092E1  -2.653911991290163E1  -4.006840025834117E1  
 1.238019559902201E11   -2.843437341209208E1  -6.920885970824092E-1  -1.548786862439914E1   6.654850361438446E1  -1.548811484830991E1   3.755242778712188E1  -2.617390552125787E1  -5.513315529937182E1  
 1.238141809290954E11   -3.021824714749179E1  -3.097272501249422E1  -1.546176262859323E1   1.884709090492189E1  -1.545644341386562E1  -1.011453839504806E1  -2.855918522349439E1  -7.352006338619515E1  
 1.238264058679707E11   -3.519612676157531E1  -3.054601492284903E1  -1.550170775207936E1  -2.862449983606871E1  -1.550066696082880E1  -5.748480766882651E1  -3.453697800933553E1  -6.687993301567208E1  
 1.238386308068460E11   -3.356550783702227E1  -9.540307413320569  -1.554374014134039E1  -7.573294217559067E1  -1.553678690749907E1  -1.043380766961887E2  -3.220302513361943E1  -2.063213388922570E1  
 1.238508557457213E11   -3.318073999353902E1  -3.119269995838151E1  -1.549196935801897E1  -1.230572092941118E2  -1.548539640070172E1  -1.516734903368549E2  -2.860967318057158E1  -2.902302692357590E1  
 1.238630806845966E11   -4.348159528763301E1  -4.316396516312032E1  -1.548451982798878E1  -1.705921237005710E2  -1.547619536822575E1   1.608386291523292E2  -2.865070710638934E1  -3.874933376033053E1  
 1.238753056234719E11   -3.400721811841665E1   6.196888670952268E1  -1.551537156550759E1   1.420147576363976E2  -1.551130089492338E1   1.133736139036597E2  -2.875510789319321E1  -3.365296699383023E1  
 1.238875305623472E11   -2.814701474840388E1   3.174191590510396E1  -1.549849402304991E1   9.483489675846690E1  -1.548026009911600E1   6.704612640866434E1  -2.686350262333883E1  -3.568848736660821E1  
 1.238997555012225E11   -2.765057173251048E1   6.675955527155653  -1.543023812262769E1   4.761958019209840E1  -1.541720928801501E1   1.917696709642508E1  -2.641229958831105E1  -4.963333353402235E1  
 1.239119804400978E11   -2.919158254046730E1   3.456755043181238  -1.540883263478855E1  -2.939738028639511E-1  -1.540163576186995E1  -2.852076111150117E1  -2.813355993290003E1  -5.562864730673064E1  
 1.239242053789731E11   -2.705958645612071E1   1.119542819004163E1  -1.547270707415773E1  -4.735065436015341E1  -1.547165327366728E1  -7.591622584620785E1  -2.835601102253555E1  -4.352345406538075E1  
 1.239364303178484E11   -2.460631791889310E1  -5.748994980778580  -1.548176097154838E1  -9.459126155668601E1  -1.547892185193556E1  -1.228961079425907E2  -2.573813401616676E1  -4.618514726931058E1  
 1.239486552567237E11   -2.549630088453273E1  -3.028251435414726E1  -1.544724890375779E1  -1.416543459354085E2  -1.545152689011187E1  -1.704996492502126E2  -2.492393421280375E1  -6.586218938784907E1  
 1.239608801955990E11   -3.017972756553586E1  -3.824908362912177E1  -1.545952333027766E1   1.707588137192404E2  -1.545729335094729E1   1.422291670233567E2  -2.688059336289549E1  -8.479122639241993E1  
 1.239731051344743E11   -3.067315818680977E1   4.724784297212685  -1.549703890653223E1   1.237889841937714E2  -1.548462701433537E1   9.525427777017984E1  -3.081844813800539E1  -8.281349962969988E1  
 1.239853300733496E11   -2.605583612245651E1   1.293386753104802  -1.543811032035632E1   7.675144376505200E1  -1.542731459517820E1   4.813017989191178E1  -3.089102774966099E1  -6.659532609671253E1  
 1.239975550122250E11   -2.528109851120343E1  -1.232072600399347E1  -1.535930658306891E1   2.914306046403060E1  -1.535880843865219E1   2.205930689757797E-1  -3.118732435548095E1  -7.261687085611833E1  
 1.240097799511003E11   -2.545632567861109E1  -1.237611597536594E1  -1.537661431009304E1  -1.880987932629529E1  -1.536947977238407E1  -4.748746885946446E1  -3.518251944850049E1  -5.764808437752997E1  
 1.240220048899756E11   -2.347626507018465E1  -1.362173125188310E1  -1.542982468782762E1  -6.591092127689068E1  -1.542532470805504E1  -9.496438040808573E1  -3.049618402335071E1  -2.265105931842959E1  
 1.240342298288509E11   -2.215245657982075E1  -2.999683753924282E1  -1.540620730977245E1  -1.126229524254633E2  -1.541777751191965E1  -1.417632579259021E2  -2.629524267914428E1  -3.817483180239263E1  
 1.240464547677262E11   -2.346721177214935E1  -4.757768901268767E1  -1.538435273226998E1  -1.597008725121209E2  -1.538006818806807E1   1.708402277479000E2  -2.569886297118319E1  -6.095158815299495E1  
 1.240586797066015E11   -2.665334304192355E1  -4.404113957805383E1  -1.538267642402303E1   1.526483824885663E2  -1.538989004417977E1   1.233661366180863E2  -2.757019367075080E1  -7.465817596076957E1  
 1.240709046454768E11   -2.500580773834634E1  -2.233292656841218E1  -1.540041836567245E1   1.056621286160068E2  -1.540017025831118E1   7.617782899279347E1  -2.855296235738635E1  -6.963475600130194E1  
 1.240831295843521E11   -2.210964979652441E1  -3.140313739804723E1  -1.537305867854457E1   5.839481120502893E1  -1.537052319358383E1   2.903396968787771E1  -2.765924600974740E1  -7.988424433700075E1  
 1.240953545232274E11   -2.166491222267355E1  -4.704334496703164E1  -1.535278972614392E1   1.066704641257707E1  -1.534765742974155E1  -1.867487245984279E1  -2.988041264209727E1  -1.046297347497098E2  
 1.241075794621027E11   -2.251865129275336E1  -5.366313319428655E1  -1.537983326012838E1  -3.668783626374755E1  -1.539161246676887E1  -6.596166670473741E1  -4.335384975625629E1  -1.225752629669730E2  
 1.241198044009780E11   -2.203746959703569E1  -5.413364958338153E1  -1.538487079640066E1  -8.384245694557302E1  -1.537757653882167E1  -1.129091764157356E2  -3.234819265272208E1  -1.502916217698286  
 1.241320293398533E11   -2.131965865499227E1  -6.579680154250445E1  -1.532462950913954E1  -1.306467730649677E2  -1.533441086767510E1  -1.599427568762517E2  -2.747234408584460E1  -3.226770743426371E1  
 1.241442542787286E11   -2.253640180292900E1  -8.024963416967573E1  -1.528492733763783E1  -1.781710767537873E2  -1.528318063016799E1   1.525253395321744E2  -2.784752514112109E1  -5.676394013818387E1  
 1.241564792176039E11   -2.548018582800084E1  -7.928821142321830E1  -1.527515766555353E1   1.344528535006254E2  -1.528547122472798E1   1.051420990243313E2  -3.080469154403745E1  -5.703753903867606E1  
 1.241687041564792E11   -2.492570891740403E1  -6.235492456163885E1  -1.526280412262158E1   8.699649318309385E1  -1.525272962776362E1   5.799166437188139E1  -2.948516985471556E1  -4.214328402313449E1  
 1.241809290953545E11   -2.288892584560159E1  -6.782725571269323E1  -1.522708428542788E1   3.968533510431349E1  -1.521660414572011E1   1.033149610750098E1  -2.839492246824612E1  -5.355709781759305E1  
 1.241931540342298E11   -2.298114014109624E1  -7.910166641020061E1  -1.524147124943891E1  -7.828265917278745  -1.523527134513914E1  -3.760313587186780E1  -3.175798353585960E1  -5.786057601384274E1  
 1.242053789731051E11   -2.395715362290265E1  -8.034959874912586E1  -1.528419394083240E1  -5.547670967837031E1  -1.527927877341986E1  -8.489350138365741E1  -3.087701034640359E1  -1.341716567941307E1  
 1.242176039119804E11   -2.308808659705244E1  -7.970661133416763E1  -1.527089749098294E1  -1.024439031699032E2  -1.525000188976403E1  -1.323075328607079E2  -2.503912956603340E1  -1.955535779873822E1  
 1.242298288508557E11   -2.271900484128426E1  -9.331630034091661E1  -1.525056499479220E1  -1.499388534396301E2  -1.522054320268776E1  -1.794806121301317E2  -2.306215191626332E1  -4.128842299959870E1  
 1.242420537897311E11   -2.514828350681599E1  -1.072136690995367E2  -1.528107798070931E1   1.624712307588493E2  -1.525926753452774E1   1.327810098247915E2  -2.362997889689632E1  -5.820750697922363E1  
 1.242542787286064E11   -2.915770939679500E1  -8.496396345383137E1  -1.533478062921806E1   1.151096334870284E2  -1.532406725846896E1   8.563533993884619E1  -2.449460680068863E1  -5.981585608521193E1  
 1.242665036674817E11   -2.475085124842541E1  -6.479156378393887E1  -1.534528447350257E1   6.818127544025765E1  -1.533214710567685E1   3.879139787300311E1  -2.331787377437441E1  -6.274110092167415E1  
 1.242787286063570E11   -2.231022209132313E1  -8.144923010210283E1  -1.533208511342171E1   2.106425740472011E1  -1.531211210431732E1  -8.280198814179492  -2.281868291687355E1  -8.019254677674731E1  
 1.242909535452323E11   -2.319054492923348E1  -9.771268275342278E1  -1.533246149882733E1  -2.604041561524904E1  -1.532477013864119E1  -5.560630471059779E1  -2.493996958966747E1  -9.836630233243324E1  
 1.243031784841076E11   -2.501310035871403E1  -9.368566981188246E1  -1.531484991739048E1  -7.306596256387721E1  -1.528842451866961E1  -1.024189989361599E2  -2.913034956155242E1  -9.127984459162413E1  
 1.243154034229829E11   -2.343498736960628E1  -8.764889429066183E1  -1.522753146923748E1  -1.203715719372684E2  -1.521807414708658E1  -1.497984554204208E2  -2.771791746232222E1  -7.195440688333115E1  
 1.243276283618582E11   -2.240511036777377E1  -9.935506847207668E1  -1.522254670243889E1  -1.683742090633914E2  -1.518776707152933E1   1.624663893567988E2  -2.657264815124127E1  -8.518343114124006E1  
 1.243398533007335E11   -2.369298517175386E1  -1.102604675487623E2  -1.526764954531442E1   1.440348281997611E2  -1.524316318079438E1   1.149149503667679E2  -2.980973898406360E1  -9.814843648449181E1  
 1.243520782396088E11   -2.506331302263213E1  -1.010244675985950E2  -1.526556912666276E1   9.734280135768469E1  -1.526125737993005E1   6.798853634415384E1  -3.323039866181056E1  -5.680285243125770E1  
 1.243643031784841E11   -2.275522148907414E1  -9.703069917024240E1  -1.522198588098047E1   5.029266338588767E1  -1.520818366227662E1   2.071319397852098E1  -2.769728865952706E1  -4.764466415512914E1  
 1.243765281173594E11   -2.150373076647341E1  -1.116198225163070E2  -1.519215973139322E1   2.691685530080183  -1.517178731381738E1  -2.656849388081241E1  -2.684041520297163E1  -6.521994220180299E1  
 1.243887530562347E11   -2.238416779125647E1  -1.258219857411236E2  -1.520204973019530E1  -4.453303511718035E1  -1.519327935222283E1  -7.392483382643681E1  -2.992977825167397E1  -6.244866170615367E1  
 1.244009779951100E11   -2.361284834856703E1  -1.273189062073639E2  -1.516424663870349E1  -9.168063853885045E1  -1.517292513840534E1  -1.210836218702943E2  -2.735124864025354E1  -3.180799352269013E1  
 1.244132029339853E11   -2.294564827205394E1  -1.308255312623486E2  -1.511823403650681E1  -1.394229881183881E2  -1.511488860860486E1  -1.685480736736329E2  -2.314523116585634E1  -4.076544283916953E1  
 1.244254278728606E11   -2.312285257962499E1  -1.487522094429610E2  -1.513843627615981E1   1.728360647381136E2  -1.513960246334726E1   1.438719751150304E2  -2.205309173786058E1  -5.813893000478607E1  
 1.244376528117360E11   -2.670114113489417E1  -1.679752590076981E2  -1.519265715319066E1   1.256136529627151E2  -1.517988119289829E1   9.673164938167349E1  -2.259368331648815E1  -6.677102517394602E1  
 1.244498777506113E11   -3.354482095196173E1  -1.368580885296310E2  -1.517329987972441E1   7.880665969788760E1  -1.516920946743030E1   4.959223125239341E1  -2.215196512154346E1  -6.548168162611307E1  
 1.244621026894866E11   -2.781230471571531E1  -1.127953971122456E2  -1.511820497554995E1   3.130544558237439E1  -1.512042163242586E1   2.233022602584430  -2.082948928473952E1  -7.352236798353594E1  
 1.244743276283619E11   -2.653727037935932E1  -1.350751168218330E2  -1.513603103822432E1  -1.633049146130816E1  -1.514626821778005E1  -4.509040012635124E1  -2.088952450498974E1  -8.695951428632128E1  
 1.244865525672372E11   -3.078809119932834E1  -1.461087986389892E2  -1.516171092602789E1  -6.320028887055743E1  -1.514866953829390E1  -9.217984670794431E1  -2.226617175841447E1  -9.228868484310578E1  
 1.244987775061125E11   -3.118799489006889E1  -1.015039803312217E2  -1.508767019088655E1  -1.104535051976509E2  -1.508031422341093E1  -1.392377430272324E2  -2.218716949774212E1  -8.688941425377104E1  
 1.245110024449878E11   -2.637765203870564E1  -1.092589992515040E2  -1.504541727196074E1  -1.583195440005645E2  -1.503715615593644E1   1.731723655310167E2  -2.086399204325693E1  -9.247471707336671E1  
 1.245232273838631E11   -2.649944131591051E1  -1.328539513699049E2  -1.509020469918349E1   1.542659384155745E2  -1.509536445369102E1   1.256815031892443E2  -2.088611099530687E1  -1.051557819203245E2  
 1.245354523227384E11   -3.202179654200099E1  -1.337334939578786E2  -1.512265907198733E1   1.072493549815501E2  -1.510828539322318E1   7.859650136728773E1  -2.223490831571365E1  -1.108947024769985E2  
 1.245476772616137E11   -2.900842402825222E1  -8.520357341199237E1  -1.505677114373014E1   6.004158257713738E1  -1.503874893079789E1   3.148208571206012E1  -2.238743003987849E1  -1.074556489175914E2  
 1.245599022004890E11   -2.432112815559609E1  -9.999067401997546E1  -1.502457481411911E1   1.243193538810734E1  -1.501725835723493E1  -1.611402711374356E1  -2.151245037223439E1  -1.145499451644590E2  
 1.245721271393643E11   -2.393481367910952E1  -1.216955480078171E2  -1.507129935900717E1  -3.498950002683820E1  -1.506180888307202E1  -6.336214740749505E1  -2.232691694094228E1  -1.288943487772588E2  
 1.245843520782396E11   -2.610778369181860E1  -1.259815746723441E2  -1.506306529914734E1  -8.171511535229296E1  -1.506648046509727E1  -1.103324759106283E2  -2.515921326149738E1  -1.323161646402038E2  
 1.245965770171149E11   -2.502248074612398E1  -1.125981144203378E2  -1.497939104420111E1  -1.289403289792039E2  -1.497021130407136E1  -1.574832461638132E2  -2.567861382011948E1  -1.153238649872866E2  
 1.246088019559902E11   -2.251150910235209E1  -1.236545666323022E2  -1.497340007223049E1  -1.770842625330265E2  -1.497371208282652E1   1.547343464760824E2  -2.388065465143308E1  -1.179680898869160E2  
 1.246210268948655E11   -2.257432061349178E1  -1.436686540086607E2  -1.501963540420440E1   1.355151521384955E2  -1.501246756166600E1   1.076520871594401E2  -2.457323395387567E1  -1.313398828466090E2  
 1.246332518337408E11   -2.503335507633427E1  -1.530534086558382E2  -1.498762538550513E1   8.874755417975266E1  -1.496879309490621E1   6.055094146023249E1  -2.769768846838897E1  -1.280433946306909E2  
 1.246454767726161E11   -2.607519445824407E1  -1.425796733139066E2  -1.488980536071580E1   4.112685937882415E1  -1.487656024041822E1   1.299938540776260E1  -2.685413414654664E1  -1.047956578451385E2  
 1.246577017114914E11   -2.490723762023820E1  -1.465718945133277E2  -1.489402577624110E1  -6.945088083071285  -1.488348564949929E1  -3.470892810634695E1  -2.441629593280106E1  -1.075053150997946E2  
 1.246699266503667E11   -2.676423128437597E1  -1.583076312769180E2  -1.495011312694578E1  -5.429739865703351E1  -1.495661137179523E1  -8.210651331995233E1  -2.429013415362484E1  -1.149835280781845E2  
 1.246821515892421E11   -2.996943908291892E1  -1.323314318012050E2  -1.495348471975436E1  -1.012708833123224E2  -1.494041542881751E1  -1.293288528518921E2  -2.399643448400335E1  -1.108573816561422E2  
 1.246943765281174E11   -2.460976987776483E1  -1.169517051270541E2  -1.492928911976154E1  -1.489340979331946E2  -1.491767386223593E1  -1.768486257500025E2  -2.183253355954656E1  -1.140363497536543E2  
 1.247066014669927E11   -2.175576294682653E1  -1.370733775200609E2  -1.501183770608033E1   1.638995409041172E2  -1.499628040042358E1   1.357975311930582E2  -2.064889226415820E1  -1.305021106589134E2  
 1.247188264058680E11   -2.231006732751478E1  -1.595298361337586E2  -1.504258522886916E1   1.168704074739792E2  -1.503279292170987E1   8.921080969338446E1  -2.151560322428151E1  -1.488791124964243E2  
 1.247310513447433E11   -2.513115364512369E1  -1.659150116940955E2  -1.491730042515312E1   6.995534095414797E1  -1.491688879843635E1   4.227997038701390E1  -2.375413915510110E1  -1.559452555842206E2  
 1.247432762836186E11   -2.556146060795151E1  -1.510175399576254E2  -1.483452118864799E1   2.185095065725456E1  -1.481814945994535E1  -5.754042882362731  -2.470409807555758E1  -1.525452239946585E2  
 1.247555012224939E11   -2.360969779213389E1  -1.544388448555999E2  -1.488039018996537E1  -2.573055336494311E1  -1.488127556178963E1  -5.365746185772665E1  -2.470185145676589E1  -1.586900569067374E2  
 1.247677261613692E11   -2.402881781286466E1  -1.651852936304780E2  -1.493901371667289E1  -7.281937203085381E1  -1.493172643832237E1  -1.004728849843938E2  -2.712804831828038E1  -1.694446696551796E2  
 1.247799511002445E11   -2.486229539927845E1  -1.604941594052042E2  -1.488565597204229E1  -1.200801500780543E2  -1.487752921503355E1  -1.475100987045687E2  -3.105411851129534E1  -1.460236659497594E2  
 1.247921760391198E11   -2.291114963007299E1  -1.592508296521818E2  -1.487651087278597E1  -1.678295854398451E2  -1.486482435404992E1   1.643090770101132E2  -2.670101998036572E1  -1.247428794214283E2  
 1.248044009779951E11   -2.169697171444474E1  -1.762669991522154E2  -1.497349667589729E1   1.447090278945993E2  -1.497553522111134E1   1.170473112355236E2  -2.423328681574368E1  -1.413396854122375E2  
 1.248166259168704E11   -2.319325595855045E1   1.639448007910731E2  -1.503125028057211E1   9.831866808430277E1  -1.502126109211305E1   7.063424173606833E1  -2.520973051935171E1  -1.588399512116466E2  
 1.248288508557457E11   -2.695973796011989E1   1.641575707129461E2  -1.491525767621945E1   5.115355403225652E1  -1.490339362085294E1   2.384306429605164E1  -2.732902120228968E1  -1.582557342459947E2  
 1.248410757946210E11   -2.653132332208793E1  -1.766181890543884E2  -1.485603338852366E1   3.366012551225485  -1.485814431774570E1  -2.403024836224230E1  -2.667882661166009E1  -1.515340590595840E2  
 1.248533007334963E11   -2.486934543203271E1   1.747554782828418E2  -1.493396573758754E1  -4.414201949811451E1  -1.493014856038873E1  -7.158855141237221E1  -2.607880730895399E1  -1.628765145820629E2  
 1.248655256723716E11   -2.673931303743240E1   1.624773150979932E2  -1.494597912577156E1  -9.075605546643622E1  -1.495372698410149E1  -1.182625617246826E2  -2.869936889390907E1  -1.733593819080070E2  
 1.248777506112470E11   -2.899445593766733E1  -1.772154889070815E2  -1.482429079118331E1  -1.382744145542392E2  -1.481907105743885E1  -1.653145104365842E2  -3.104037530645062E1  -1.494432381605562E2  
 1.248899755501223E11   -2.559403764718875E1  -1.683888583241793E2  -1.479325358454039E1   1.738755716348487E2  -1.478274019112615E1   1.468468018383358E2  -2.728573305373837E1  -1.398471661289090E2  
 1.249022004889976E11   -2.414687136453017E1   1.758788436788607E2  -1.485716362720377E1   1.264526937129663E2  -1.484260091833001E1   9.940070263916364E1  -2.594657057645839E1  -1.573339533683289E2  
 1.249144254278729E11   -2.577284434086011E1   1.643544906492464E2  -1.483035120857543E1   7.979889899611311E1  -1.481588353414328E1   5.254360438075700E1  -2.776093180725936E1  -1.699575130015023E2  
 1.249266503667482E11   -2.679117984754663E1   1.761129802136178E2  -1.473387721592419E1   3.214561414711025E1  -1.472573142752281E1   5.226202650356804  -2.942095472521032E1  -1.567725230040579E2  
 1.249388753056235E11   -2.443674783423965E1   1.775895398944696E2  -1.476869037125892E1  -1.580155979062248E1  -1.475588093848190E1  -4.282931893988509E1  -2.714652343325133E1  -1.543062125502284E2  
 1.249511002444988E11   -2.370735244401891E1   1.617944569100266E2  -1.485931535409347E1  -6.291161977440841E1  -1.484568493627054E1  -8.974188982986142E1  -2.664967294619491E1  -1.715036865612414E2  
 1.249633251833741E11   -2.559774596222042E1   1.535177870480714E2  -1.479496282513681E1  -1.098854604117892E2  -1.477142282687281E1  -1.363489104886468E2  -2.934052599500720E1   1.795218827129491E2  
 1.249755501222494E11   -2.626386467767397E1   1.648657242226676E2  -1.469183936945175E1  -1.575163124882146E2  -1.467167880980248E1   1.758178891505620E2  -3.099956047704696E1  -1.606139467959049E2  
 1.249877750611247E11   -2.398547209940099E1   1.632294776393983E2  -1.474559698347343E1   1.545583398118812E2  -1.473709212611143E1   1.278869178811092E2  -2.786295788558730E1  -1.568494682463550E2  
 1.250000000000000E11   -2.341893124959325E1   1.448576372571366E2  -1.486956382367021E1   1.077388890001122E2  -1.483902442290156E1   8.078925469669724E1  -2.730633459933270E1  -1.757068029796001E2  
 1.250122249388753E11   -2.579542395487223E1   1.315397929831086E2  -1.481630013321443E1   6.103238958598241E1  -1.478811439208338E1   3.411018323527064E1  -3.026832207796640E1   1.725915966794158E2  
 1.250244498777506E11   -2.764126818128006E1   1.428737657608435E2  -1.471070162636572E1   1.355309413533304E1  -1.468583675222459E1  -1.354096304047758E1  -3.263565913778754E1  -1.673952944836363E2  
 1.250366748166259E11   -2.613074214476450E1   1.448485522719998E2  -1.474486551385929E1  -3.431063817698972E1  -1.472112279880396E1  -6.097325662623434E1  -3.052160843534736E1  -1.587298281694615E2  
 1.250488997555012E11   -2.664228425478638E1   1.275226235991104E2  -1.478278130133557E1  -8.119213206879020E1  -1.476490777976953E1  -1.078083415610597E2  -3.070397071771009E1  -1.624896476570714E2  
 1.250611246943765E11   -3.152738719261073E1   1.277627542828561E2  -1.466635268091249E1  -1.284123431850295E2  -1.465455537228039E1  -1.549976844876619E2  -3.050369542923125E1  -1.491064155016208E2  
 1.250733496332518E11   -3.034454694825336E1   1.719703979114487E2  -1.462925289883227E1  -1.764914445879444E2  -1.461288358497666E1   1.567112255443029E2  -2.746242985473085E1  -1.479134499493102E2  
 1.250855745721271E11   -2.587079700970449E1   1.626580786095511E2  -1.474332853757004E1   1.359483704625029E2  -1.472735876258107E1   1.093642089244624E2  -2.555562118412931E1  -1.649219964008582E2  
 1.250977995110024E11   -2.615880237567407E1   1.423087228114950E2  -1.477593305237329E1   8.923684079743899E1  -1.476966020271604E1   6.279647037282765E1  -2.631498106930617E1   1.770426003833444E2  
 1.251100244498778E11   -2.922074789259598E1   1.463403575306023E2  -1.465462869486886E1   4.217954479866924E1  -1.463608273979612E1   1.594433801220401E1  -2.826477730411267E1   1.751566913913958E2  
 1.251222493887531E11   -2.723809327865572E1   1.705229196034601E2  -1.462217836285561E1  -5.771155273334379  -1.459677460757951E1  -3.192730311597586E1  -2.769100111292974E1  -1.798638384211262E2  
 1.251344743276284E11   -2.375301216481236E1   1.612182057133107E2  -1.471664040464965E1  -5.342552695903045E1  -1.469454441559438E1  -7.965308960022892E1  -2.665474479023544E1   1.679007064815281E2  
 1.251466992665037E11   -2.328185296932342E1   1.453514223729188E2  -1.472453681133000E1  -9.991015714102011E1  -1.469216545568947E1  -1.261334922948535E2  -2.852868184129957E1   1.487081210679718E2  
 1.251589242053790E11   -2.369695630378740E1   1.412361296904657E2  -1.454798857405655E1  -1.473460236416516E2  -1.458685456163623E1  -1.738013587603771E2  -3.430082407285210E1   1.484354489318338E2  
 1.251711491442543E11   -2.262402801486262E1   1.390546837918903E2  -1.459092614310348E1   1.647288228648984E2  -1.457989134595680E1   1.382149431377873E2  -3.335016341298500E1  -1.604748089218141E2  
 1.251833740831296E11   -2.146167597908090E1   1.244281227052471E2  -1.471647155961679E1   1.175802327335196E2  -1.469099385514383E1   9.092947275584091E1  -2.896262557088678E1  -1.658652632367114E2  
 1.251955990220049E11   -2.244265036275005E1   1.052268953393403E2  -1.468948043247018E1   7.113169119227990E1  -1.466770424890879E1   4.446216159881976E1  -2.857884404237241E1  -1.785200016282971E2  
 1.252078239608802E11   -2.512507359712905E1   9.867579111095787E1  -1.454096536336316E1   2.363725242412054E1  -1.454345677121345E1  -3.105125334752790  -2.871108511915166E1  -1.789360134141526E2  
 1.252200488997555E11   -2.611374469197544E1   1.101818934597583E2  -1.455138164657671E1  -2.439482519476236E1  -1.454868283925699E1  -5.112864219873206E1  -2.759352619796131E1  -1.790218813913420E2  
 1.252322738386308E11   -2.466881818924691E1   1.046679339410473E2  -1.467022416408168E1  -7.162854754117120E1  -1.464773180167565E1  -9.833996822929652E1  -2.675896102849227E1   1.715722108669050E2  
 1.252444987775061E11   -2.610390140753953E1   8.806091759714580E1  -1.462003351826388E1  -1.182948517277363E2  -1.460361239008529E1  -1.449658533136157E2  -2.749156875123612E1   1.671048436554187E2  
 1.252567237163814E11   -3.065245792227614E1   9.336024234196830E1  -1.450563077391405E1  -1.657888489856874E2  -1.449255287545639E1   1.672845222084589E2  -2.709172929071482E1   1.722236162784011E2  
 1.252689486552567E11   -2.872011661233503E1   1.283801240531890E2  -1.454100727278048E1   1.462234828069183E2  -1.453115829419637E1   1.193100505286080E2  -2.518456501962441E1   1.684606906169391E2  
 1.252811735941320E11   -2.522835331940467E1   1.168339410797515E2  -1.464923349305312E1   9.912922025734360E1  -1.462792943603726E1   7.232973813744350E1  -2.419012725604490E1   1.543918170815964E2  
 1.252933985330073E11   -2.556851211982784E1   9.857740003078718E1  -1.457193568835200E1   5.267948064292948E1  -1.456086057389618E1   2.554379183717722E1  -2.477844848011667E1   1.425383557485286E2  
 1.253056234718826E11   -2.808648958386154E1   9.456581091559525E1  -1.446325540189790E1   4.821999321206553  -1.445536565106231E1  -2.240030043096196E1  -2.537471657071849E1   1.383810462714669E2  
 1.253178484107580E11   -2.844229597225225E1   1.091764870484244E2  -1.452264126383019E1  -4.321561699181554E1  -1.450591177542133E1  -7.034910917327660E1  -2.509691354958150E1   1.350059355670774E2  
 1.253300733496333E11   -2.724043060673063E1   1.057056366610645E2  -1.461254962374613E1  -8.995227889742571E1  -1.459915387207705E1  -1.174843938077616E2  -2.494115904266358E1   1.247985003038846E2  
 1.253422982885086E11   -2.881978435145864E1   1.057116807119165E2  -1.454208445303923E1  -1.368023736434198E2  -1.452690348142129E1  -1.644141984041109E2  -2.634618260343888E1   1.172493501090864E2  
 1.253545232273839E11   -2.835231888289769E1   1.271510832366137E2  -1.449220121166714E1   1.753735683682407E2  -1.446820592197343E1   1.474938169658863E2  -2.708025787720702E1   1.248382151097569E2  
 1.253667481662592E11   -2.438708471189188E1   1.274418942286820E2  -1.461987251375987E1   1.274498276916036E2  -1.460528354794390E1   9.966442130325974E1  -2.497692197085862E1   1.271484863671680E2  
 1.253789731051345E11   -2.260295366893112E1   1.098494665560408E2  -1.470316476977449E1   8.129420600974450E1  -1.469653249410404E1   5.352405176423124E1  -2.335051240527543E1   1.119440704061034E2  
 1.253911980440098E11   -2.281616310272434E1   9.589933321344428E1  -1.456488108522961E1   3.484726604966188E1  -1.453914255346635E1   7.201119795293112  -2.345363377268700E1   9.460813135513614E1  
 1.254034229828851E11   -2.338461048754775E1   8.817422169233306E1  -1.445652276352917E1  -1.300610061233274E1  -1.446293957665362E1  -4.081896834081407E1  -2.459980601356715E1   8.162566409052759E1  
 1.254156479217604E11   -2.350311594043531E1   8.285875357261286E1  -1.452294588873452E1  -6.088390333717805E1  -1.451471237702373E1  -8.858162182351907E1  -2.582382985223973E1   7.622198104357042E1  
 1.254278728606357E11   -2.418835172746657E1   7.219237570263965E1  -1.453192304833102E1  -1.073190897940248E2  -1.453527410763924E1  -1.353500573627806E2  -2.619118258965726E1   6.859481129607063E1  
 1.254400977995110E11   -2.617571475589903E1   6.937008911985332E1  -1.439329939434871E1  -1.543989933688949E2  -1.438253910626872E1   1.774304432350891E2  -2.722115602658955E1   5.778000456995207E1  
 1.254523227383863E11   -2.681574222158673E1   7.820999684116482E1  -1.433165141486429E1   1.574158851263929E2  -1.433576280576454E1   1.291328050050489E2  -2.942596541513034E1   5.136144989877580E1  
 1.254645476772616E11   -2.587889250871681E1   7.905576769151629E1  -1.441330765376647E1   1.097794046057010E2  -1.440337071074197E1   8.147638629404833E1  -3.082075625013945E1   5.802542903164257E1  
 1.254767726161369E11   -2.634587508656411E1   7.052218429852967E1  -1.441642118328119E1   6.285902881660294E1  -1.441356937393906E1   3.451493491079711E1  -3.054597681484234E1   5.794973138713311E1  
 1.254889975550122E11   -2.815389850821560E1   7.742459741297412E1  -1.433270850425534E1   1.507220244991228E1  -1.432982776690141E1  -1.287102584134282E1  -3.142863867560758E1   5.076192584700274E1  
 1.255012224938875E11   -2.691270951817156E1   9.171406666240939E1  -1.437697691785811E1  -3.283673528916975E1  -1.436668957553148E1  -6.128066201619660E1  -3.328689874315624E1   5.461026223948508E1  
 1.255134474327628E11   -2.477018075071123E1   8.601150175079587E1  -1.452082403607409E1  -8.013861383217825E1  -1.450915475362616E1  -1.083993460223194E2  -3.177777364475450E1   6.585916141615267E1  
 1.255256723716381E11   -2.505491243534518E1   7.538752260075411E1  -1.449916211709092E1  -1.264808615936115E2  -1.449715725088598E1  -1.550113867181233E2  -3.040379181121192E1   5.143276880566376E1  
 1.255378973105134E11   -2.562207067820255E1   7.961539006226421E1  -1.437363016496195E1  -1.739961275737358E2  -1.438609989525668E1   1.576910333411889E2  -3.151290794519976E1   3.373618984460586E1  
 1.255501222493888E11   -2.398456954594868E1   8.280857473763207E1  -1.442613275500717E1   1.380043340617263E2  -1.441594346691926E1   1.094591577306954E2  -3.538830377322397E1   2.457966372747402E1  
 1.255623471882641E11   -2.247635938912624E1   6.989665721905098E1  -1.457008036014357E1   9.111830151671107E1  -1.456193616935400E1   6.274241221519535E1  -3.788868786470804E1   4.748881207556437E1  
 1.255745721271394E11   -2.361889389504759E1   5.428654572601971E1  -1.449750619253425E1   4.470100050796133E1  -1.450602199723112E1   1.631443584464106E1  -3.708870424384998E1   5.434140263896676E1  
 1.255867970660147E11   -2.606237134891741E1   5.640818391286861E1  -1.438018103128814E1  -2.798438690269272  -1.437077279711201E1  -3.120593181019435E1  -3.758694700653917E1   6.412082459499170E1  
 1.255990220048900E11   -2.565123822362639E1   7.179474891628757E1  -1.441630806617303E1  -5.079218557156136E1  -1.442003551307339E1  -7.908720981512845E1  -3.586413796212487E1   7.728655162350508E1  
 1.256112469437653E11   -2.363523990640402E1   6.662482827123269E1  -1.452617579761958E1  -9.759583251961584E1  -1.452247602613540E1  -1.258258489137193E2  -3.311684494597914E1   6.999890850348835E1  
 1.256234718826406E11   -2.406012994787236E1   5.756921656257473E1  -1.441672185597818E1  -1.442158233534722E2  -1.440242419932988E1  -1.725721733393293E2  -3.323230564594714E1   5.539949334681731E1  
 1.256356968215159E11   -2.471110100661896E1   6.211236578829855E1  -1.431059922802345E1   1.679502167086684E2  -1.431135031467871E1   1.396438772835768E2  -3.457948245021137E1   5.162754764263515E1  
 1.256479217603912E11   -2.313558031595022E1   6.569090899869070E1  -1.439241187863260E1   1.199901206461499E2  -1.437704524617792E1   9.184711989896353E1  -3.590401396992968E1   6.399912690170039E1  
 1.256601466992665E11   -2.184860526051390E1   5.416681570239053E1  -1.445605270701631E1   7.329384674716562E1  -1.443828670822735E1   4.534617983318302E1  -3.378594448725373E1   7.150269890928175E1  
 1.256723716381418E11   -2.255250642318732E1   4.231550513184758E1  -1.431301638795927E1   2.647322076208429E1  -1.430957074864594E1  -1.545659871136991  -3.209739988412345E1   6.926541926114737E1  
 1.256845965770171E11   -2.394609589813461E1   4.176872245389986E1  -1.422214156590354E1  -2.149726995319911E1  -1.419872034434473E1  -4.944479946435042E1  -3.031676117536323E1   6.180482000763239E1  
 1.256968215158924E11   -2.392947066665135E1   4.712253062807520E1  -1.427513156629933E1  -6.954636528893390E1  -1.425228621022473E1  -9.698741192279438E1  -2.921542895836883E1   4.890359549933200E1  
 1.257090464547677E11   -2.348540646493585E1   4.477579568069461E1  -1.425364006429374E1  -1.164516958452811E2  -1.423669317828846E1  -1.436057445650096E2  -2.902026157801208E1   3.330518180663637E1  
 1.257212713936430E11   -2.367510603456771E1   4.752164857278637E1  -1.414178950739340E1  -1.639782370571219E2  -1.413405951982124E1   1.688590445414827E2  -2.926449011473022E1   1.931133678715695E1  
 1.257334963325183E11   -2.226299569261540E1   5.049616391096852E1  -1.415446144585222E1   1.476776312106775E2  -1.414084144060099E1   1.207303334929206E2  -2.993901185017693E1   9.863207107363450E-1  
 1.257457212713937E11   -2.051981879453767E1   4.201179199613431E1  -1.429637283825532E1   1.000959160693062E2  -1.429604285850421E1   7.325522907381865E1  -3.245283469500465E1  -1.996006949690240E1  
 1.257579462102690E11   -2.035204961168989E1   2.578284321915224E1  -1.432750194515581E1   5.353294835020998E1  -1.432691167921860E1   2.688061022246174E1  -3.623745741991048E1  -4.094602894804288E1  
 1.257701711491443E11   -2.211604766051484E1   1.549985798230799E1  -1.419664342058520E1   6.204331936009470  -1.417293177855214E1  -2.029939132064938E1  -4.469993095200309E1  -7.978191647502011E1  
 1.257823960880196E11   -2.362911134032487E1   2.064339913108114E1  -1.415858953987537E1  -4.193802869994912E1  -1.414566116997402E1  -6.853436190762758E1  -4.735004885327196E1   1.317773620597103E2  
 1.257946210268949E11   -2.286744833657433E1   2.590920104625796E1  -1.427754431116134E1  -8.937363000186537E1  -1.427681731143103E1  -1.158159897068661E2  -3.967729388493887E1   1.021719661444487E2  
 1.258068459657702E11   -2.273333186823118E1   1.833628527769394E1  -1.427263092006351E1  -1.362363581984086E2  -1.425838295298695E1  -1.621095647755331E2  -3.802013139924543E1   8.481672739827155E1  
 1.258190709046455E11   -2.400179137648873E1   1.978575871515531E1  -1.415904475286853E1   1.763310304459235E2  -1.415746608675007E1   1.501085666602928E2  -3.754378118224184E1   8.882842993312490E1  
 1.258312958435208E11   -2.322127726094859E1   3.200372831111715E1  -1.420065998733103E1   1.280222394862598E2  -1.420531093742331E1   1.021768532751304E2  -3.591970890265665E1   9.357873151900641E1  
 1.258435207823961E11   -2.075764762213909E1   2.913122174613848E1  -1.436011775333877E1   8.113419381786083E1  -1.437030242684050E1   5.524991150522710E1  -3.390599944292093E1   9.502102580909494E1  
 1.258557457212714E11   -1.986227712431964E1   1.496019998452548E1  -1.430472294858741E1   3.483148375566790E1  -1.430438362419326E1   9.330425611243024  -3.199111553765366E1   1.006404213803989E2  
 1.258679706601467E11   -2.038908867872761E1   4.888467963812830  -1.416581044244955E1  -1.276209711394125E1  -1.417052751555672E1  -3.841485911238118E1  -2.844631293641724E1   9.348626403728819E1  
 1.258801955990220E11   -2.093447075383485E1   1.595784626081382  -1.418101680551185E1  -6.090117567894132E1  -1.419557824475136E1  -8.618827835469462E1  -2.667996933795511E1   7.521039922902806E1  
 1.258924205378973E11   -2.066816756276222E1  -2.796233042427081  -1.429287257757412E1  -1.077670009004983E2  -1.428419843238475E1  -1.331791101671447E2  -2.670876894418223E1   5.911488920712066E1  
 1.259046454767726E11   -2.113684484234084E1  -1.272562934210195E1  -1.419886822227705E1  -1.543058913405522E2  -1.419466743563026E1  -1.797929204322257E2  -2.800327933100498E1   5.318904058101891E1  
 1.259168704156479E11   -2.258680345022429E1  -1.590823776865536E1  -1.406606676058542E1   1.580367416735924E2  -1.406980456259937E1   1.324660279941291E2  -2.740073263081225E1   5.826758963100512E1  
 1.259290953545232E11   -2.338630347573675E1  -1.136213687425760E1  -1.410482862996826E1   1.103078198149180E2  -1.410270137419211E1   8.425487203799311E1  -2.583501916037990E1   5.117794017629394E1  
 1.259413202933985E11   -2.274464764028079E1  -1.006204713062255E1  -1.418574324504471E1   6.310282516271000E1  -1.418184634455464E1   3.761304939586989E1  -2.556241143916353E1   3.768978616669402E1  
 1.259535452322738E11   -2.307949930181669E1  -1.534847599614003E1  -1.408817237927989E1   1.605713319013906E1  -1.408851590182457E1  -9.215526536307145  -2.652184022990232E1   3.134836484256262E1  
 1.259657701711491E11   -2.361711245205187E1  -1.125913451821934E1  -1.402848454830084E1  -3.187121763425011E1  -1.403308167009183E1  -5.752147048837646E1  -2.629057578009346E1   3.204095546601808E1  
 1.259779951100244E11   -2.252412531754944E1  -8.842482504087041  -1.412632064870273E1  -7.975877901377137E1  -1.413074207238957E1  -1.051564750939672E2  -2.562436358866971E1   2.428451951527813E1  
 1.259902200488998E11   -2.139031192731271E1  -1.893867336568676E1  -1.417823383573220E1  -1.258555980118685E2  -1.418492632704583E1  -1.519067589040872E2  -2.618266825296414E1   1.027933847554378E1  
 1.260024449877751E11   -2.228458892706346E1  -3.177215948268866E1  -1.403640384604159E1  -1.727558595478290E2  -1.404348278952744E1   1.610642100775767E2  -2.887190718442798E1   7.334790308612297  
 1.260146699266504E11   -2.410424788399681E1  -3.417185358633583E1  -1.395880136538982E1   1.390574667743858E2  -1.396131735458202E1   1.130962287804967E2  -2.893976869483286E1   2.552474985352802E1  
 1.260268948655257E11   -2.466230433564272E1  -2.816468917851784E1  -1.404179776527853E1   9.152599110922225E1  -1.403126560402652E1   6.513842344255806E1  -2.666355815797436E1   2.242405310619257E1  
 1.260391198044010E11   -2.446350886902044E1  -3.219808172236530E1  -1.406593673722930E1   4.483844244391270E1  -1.406468271867754E1   1.832900311262398E1  -2.630221538260119E1   6.465273385243049  
 1.260513447432763E11   -2.661226332831749E1  -3.468818297864927E1  -1.397648304076305E1  -2.654985115875740  -1.397118522321262E1  -2.940471871169500E1  -2.846137026710139E1  -3.783849006606875  
 1.260635696821516E11   -2.758592086288864E1  -1.200169563372209E1  -1.397796918077621E1  -5.088590785857275E1  -1.399109444830100E1  -7.758091896424156E1  -3.019026181530947E1   3.033744125693058  
 1.260757946210269E11   -2.410455981070627E1  -5.902484464734635  -1.415240914213926E1  -9.813435459932961E1  -1.416286874717970E1  -1.250766416100712E2  -2.989751926762102E1   8.330446526368965  
 1.260880195599022E11   -2.258656217533384E1  -2.273977294981452E1  -1.417658940906368E1  -1.442468967937736E2  -1.417729377657458E1  -1.712982887729295E2  -3.084022602561007E1  -2.431959857483587E-1  
 1.261002444987775E11   -2.444774574234717E1  -3.621056393097857E1  -1.400406725845275E1   1.687708004431078E2  -1.402229381183505E1   1.414378291383843E2  -3.616708579711509E1   1.673794911492659E1  
 1.261124694376528E11   -2.732838261353324E1  -2.474989581993387E1  -1.396349860136692E1   1.207265313704289E2  -1.397645251060273E1   9.330681081809514E1  -3.197764056717675E1   6.017395784220692E1  
 1.261246943765281E11   -2.546095088157765E1  -4.185439345445174  -1.407968816986463E1   7.340171403036956E1  -1.407400426714844E1   4.557016166465201E1  -2.766903325015118E1   5.555773007735362E1  
 1.261369193154034E11   -2.324740567434268E1  -9.206713579781669  -1.406078768449695E1   2.666752116616359E1  -1.405886929757660E1  -1.120456810526868  -2.610993049367358E1   4.891981777318780E1  
 1.261491442542787E11   -2.267009180822901E1  -1.324401922469789E1  -1.396968195540102E1  -2.068849472902008E1  -1.396768012811659E1  -4.867710595950020E1  -2.414535451906382E1   4.676229093088124E1  
 1.261613691931540E11   -2.182253092964485E1  -1.465310337004940E1  -1.401676100443537E1  -6.853470926703315E1  -1.402996898999404E1  -9.684682071095142E1  -2.217470065939964E1   3.480069630359681E1  
 1.261735941320293E11   -2.065171898578172E1  -2.034076993636106E1  -1.416219286145711E1  -1.153968943720466E2  -1.416110088464500E1  -1.438166009509011E2  -2.159190228796760E1   1.869096741088235E1  
 1.261858190709047E11   -2.051959571799905E1  -3.126985152032417E1  -1.408228246565274E1  -1.615797857455411E2  -1.408951918817684E1   1.697726695673794E2  -2.269694569462138E1   7.342722501626756  
 1.261980440097800E11   -2.127585811986089E1  -3.295099605022394E1  -1.396079429205471E1   1.504846636539554E2  -1.395241211977964E1   1.217966216836358E2  -2.345064965258307E1   1.003510373262531E1  
 1.262102689486553E11   -2.049001687277960E1  -3.045242048581331E1  -1.401857867714106E1   1.026690836490494E2  -1.401226908750336E1   7.375340290617368E1  -2.236596397327368E1   9.361409641531800  
 1.262224938875306E11   -1.907450957847466E1  -3.799316115062845E1  -1.412356704360393E1   5.598508838024095E1  -1.413994275717992E1   2.696669934328200E1  -2.176412128124903E1  -1.147775486492442  
 1.262347188264059E11   -1.915203704116119E1  -5.106360041752926E1  -1.401267253007635E1   9.734227556019636  -1.401493196897242E1  -1.951416731573562E1  -2.289875627470425E1  -1.032855251004431E1  
 1.262469437652812E11   -2.011023864845428E1  -5.468269209727071E1  -1.388513396546532E1  -3.819362093206856E1  -1.388252429462898E1  -6.757819135410021E1  -2.355478740623158E1  -4.356462085434687  
 1.262591687041565E11   -1.963223887772357E1  -5.444433604647686E1  -1.394289635590421E1  -8.572491250724326E1  -1.394240077108232E1  -1.155063479073097E2  -2.203860969094731E1  -5.353820331346979  
 1.262713936430318E11   -1.850666102957868E1  -6.484222956558577E1  -1.400795045830755E1  -1.327525733475750E2  -1.401908539111897E1  -1.622198625762084E2  -2.147732324868595E1  -2.027119504433527E1  
 1.262836185819071E11   -1.893801400051389E1  -8.277410459142273E1  -1.389496701200502E1  -1.792689280599030E2  -1.390237621202262E1   1.510198054825339E2  -2.367010824735125E1  -3.542059865616050E1  
 1.262958435207824E11   -2.114210649841414E1  -9.566223354658564E1  -1.378083935343650E1   1.328275483153836E2  -1.379775638968169E1   1.032580944840677E2  -2.752982790905613E1  -2.217636130986542E1  
 1.263080684596577E11   -2.362602900707890E1  -9.552182924036177E1  -1.380097634205235E1   8.507520656669979E1  -1.381699926248147E1   5.533994133106808E1  -2.521324803062879E1   3.977699486947587E-1  
 1.263202933985330E11   -2.449861871484434E1  -9.374382183541654E1  -1.379914849265189E1   3.784938218661820E1  -1.381324700605556E1   7.934764431555761  -2.297189882121955E1  -8.232573665324654  
 1.263325183374083E11   -2.706171644208753E1  -1.007545410199375E2  -1.372251579394550E1  -1.004301263379774E1  -1.371460034668615E1  -3.970429118681681E1  -2.331831087045736E1  -1.707239094527532E1  
 1.263447432762836E11   -3.190642266603330E1  -7.025065540894103E1  -1.374515120229255E1  -5.834061955194570E1  -1.375281804713024E1  -8.807759055824826E1  -2.374087521318180E1  -1.490502066797280E1  
 1.263569682151589E11   -2.648727152708912E1  -3.843585135041514E1  -1.389781825551465E1  -1.061727213466790E2  -1.390867307684099E1  -1.357665607076619E2  -2.289516915024898E1  -1.504661675406251E1  
 1.263691931540342E11   -2.304233400494967E1  -5.365906619264992E1  -1.397289222313372E1  -1.526149105686863E2  -1.397364661867020E1   1.778352094809409E2  -2.279933783783967E1  -2.400153490839232E1  
 1.263814180929095E11   -2.355171049887109E1  -7.066176898924280E1  -1.387896529924010E1   1.601421907146707E2  -1.387824761669500E1   1.305630248744324E2  -2.473151857232870E1  -2.379085211198318E1  
 1.263936430317848E11   -2.541869779803717E1  -6.832902931437035E1  -1.389249598134707E1   1.119689450578445E2  -1.390975895802811E1   8.232495011751487E1  -2.398414025274077E1  -6.061688526498911  
 1.264058679706601E11   -2.424151789704758E1  -5.528237060973459E1  -1.410422226957851E1   6.471785040986549E1  -1.409945832202343E1   3.515931553790748E1  -2.117395674830137E1  -8.515606173070740  
 1.264180929095355E11   -2.211604967407473E1  -6.542092686848527E1  -1.412590567224267E1   1.880593089941269E1  -1.412612046854083E1  -1.038958734487018E1  -2.036457126515762E1  -2.308207933404860E1  
 1.264303178484108E11   -2.302507892713287E1  -7.835806232318105E1  -1.396570385990295E1  -2.828462351568193E1  -1.396322028624396E1  -5.745410315146774E1  -2.146363912805253E1  -2.875199437447297E1  
 1.264425427872861E11   -2.451509526157791E1  -7.227988296447492E1  -1.395837722534318E1  -7.648710567562644E1  -1.395091875622114E1  -1.054020089579865E2  -2.103508556587703E1  -2.262606651344712E1  
 1.264547677261614E11   -2.267288020802802E1  -6.605819778099637E1  -1.405883399801121E1  -1.234825655351688E2  -1.404998811104836E1  -1.524045999741825E2  -1.924141919501900E1  -2.938096488884069E1  
 1.264669926650367E11   -2.144758657788342E1  -8.081513731817876E1  -1.397507444848762E1  -1.701476923782009E2  -1.397736980996161E1   1.614911230677499E2  -1.912117328086340E1  -4.500070111545254E1  
 1.264792176039120E11   -2.339484530691893E1  -9.171346303121548E1  -1.383069382604140E1   1.423168746305635E2  -1.382915760860685E1   1.139968705670863E2  -2.079733440613748E1  -5.269324946035319E1  
 1.264914425427873E11   -2.474023742675091E1  -7.521862607746297E1  -1.386263276396366E1   9.421808489993494E1  -1.386642394873669E1   6.578403618335943E1  -2.149502160482100E1  -4.713019982941587E1  
 1.265036674816626E11   -2.143061315727852E1  -7.256089087226057E1  -1.395878422728307E1   4.733416544352107E1  -1.396536545428996E1   1.917070524112269E1  -2.025631637157754E1  -4.963519626185232E1  
 1.265158924205379E11   -2.018581870459806E1  -9.300910024034991E1  -1.388299466583229E1   9.777269032667170E-1  -1.387802698074793E1  -2.731818254577137E1  -2.042757079512177E1  -6.493917585254002E1  
 1.265281173594132E11   -2.207578064714501E1  -1.118481946564006E2  -1.374229268769718E1  -4.686972447955274E1  -1.375169609451110E1  -7.483606374874374E1  -2.341538270841954E1  -7.331399218139411E1  
 1.265403422982885E11   -2.561555053051557E1  -1.070505682329654E2  -1.376104317489454E1  -9.509970162728101E1  -1.376521014512938E1  -1.226086751147484E2  -2.551546352893920E1  -5.186562274333454E1  
 1.265525672371638E11   -2.435440104013301E1  -9.100317898245481E1  -1.379562632354282E1  -1.421771798221899E2  -1.381220824841791E1  -1.695578392815002E2  -2.282010162505151E1  -4.395366205226736E1  
 1.265647921760391E11   -2.337936656239209E1  -1.033450687777377E2  -1.369423345327800E1   1.702793405772646E2  -1.369606520994632E1   1.433345408017313E2  -2.228905848211648E1  -5.454635438708089E1  
 1.265770171149144E11   -2.589452758452392E1  -1.090092764681303E2  -1.360299169434572E1   1.225683983887706E2  -1.361911119358007E1   9.526082356523335E1  -2.354233482469722E1  -5.470579437095387E1  
 1.265892420537897E11   -2.630494496526974E1  -8.639859238098447E1  -1.369264672477233E1   7.432464781419498E1  -1.371100505751548E1   4.729135821091362E1  -2.278494739209693E1  -4.465418221017082E1  
 1.266014669926650E11   -2.280790722490577E1  -8.859145686317632E1  -1.380394510725815E1   2.759909317617533E1  -1.381728226911132E1   5.879469188393831E-1  -2.086198542527355E1  -5.034071503512475E1  
 1.266136919315403E11   -2.242128700699355E1  -1.107666914138477E2  -1.371683637659301E1  -1.914780282124616E1  -1.373296464417179E1  -4.604940984284840E1  -2.098502645643908E1  -6.453046946114907E1  
 1.266259168704157E11   -2.601378313947929E1  -1.235220752936079E2  -1.362974301791625E1  -6.692082940651189E1  -1.363005080482224E1  -9.358934831374847E1  -2.288306830876222E1  -6.783122280962439E1  
 1.266381418092910E11   -2.857406491763810E1  -9.075592140586791E1  -1.366856838034854E1  -1.147644628420624E2  -1.368291128643519E1  -1.416768204107073E2  -2.295007376559216E1  -5.849195427615207E1  
 1.266503667481663E11   -2.405074521262821E1  -8.469771325852369E1  -1.367516463840235E1  -1.618298103003264E2  -1.367721264701327E1   1.715735807873496E2  -2.199995288645870E1  -6.276783745424361E1  
 1.266625916870416E11   -2.324958522669893E1  -1.009076051123089E2  -1.358097304757058E1   1.506298758032475E2  -1.359600096375679E1   1.237890500495404E2  -2.336601094113326E1  -6.821896259902267E1  
 1.266748166259169E11   -2.462598885648871E1  -1.018502366995988E2  -1.361035950054082E1   1.023145739931139E2  -1.361723152823199E1   7.568819244862615E1  -2.404294517527418E1  -5.277549826316145E1  
 1.266870415647922E11   -2.297963953539616E1  -9.197518853357779E1  -1.375114813806337E1   5.515094893941514E1  -1.376353685766032E1   2.807345361594290E1  -2.110045627137658E1  -4.840399417332183E1  
 1.266992665036675E11   -2.037489854418410E1  -1.055275831388713E2  -1.377218454377447E1   8.739901370982764  -1.378559764759329E1  -1.791372475438573E1  -1.969232378129731E1  -6.469016788194489E1  
 1.267114914425428E11   -2.039568856810623E1  -1.287432141699450E2  -1.366950112960296E1  -3.832838299538564E1  -1.367596004571532E1  -6.475201278386665E1  -2.126319951384469E1  -7.965703925538080E1  
 1.267237163814181E11   -2.290085586426872E1  -1.445937340528705E2  -1.363141921336469E1  -8.611690836999526E1  -1.364701626462828E1  -1.130438735135586E2  -2.400240675695967E1  -6.890991320564338E1  
 1.267359413202934E11   -2.533616760877629E1  -1.389303947220549E2  -1.367507454910020E1  -1.333212173723006E2  -1.369141675807797E1  -1.605627375150343E2  -2.165854453997489E1  -5.375557610857599E1  
 1.267481662591687E11   -2.441687368969354E1  -1.419638315466055E2  -1.364030674999888E1   1.793690020190194E2  -1.365271818980708E1   1.523448529938603E2  -1.968206897058514E1  -6.407018708120668E1  
 1.267603911980440E11   -2.639852279422298E1  -1.663969470250429E2  -1.358443109715473E1   1.317205424255864E2  -1.359340962799860E1   1.044301256556648E2  -1.995883120689390E1  -7.528371111600751E1  
 1.267726161369193E11   -3.874769166379184E1  -1.756495916292269E2  -1.365637521413985E1   8.389246388961813E1  -1.366445734842795E1   5.651179124165367E1  -2.061010672933534E1  -7.500080569676763E1  
 1.267848410757946E11   -2.906074008188012E1  -7.242354920198774E1  -1.376587634142964E1   3.687927186016920E1  -1.377602507132058E1   9.591016661873052  -1.948563838745319E1  -7.548768013738911E1  
 1.267970660146699E11   -2.460599119540749E1  -1.058966584051987E2  -1.369762027197720E1  -9.702054191311676  -1.372989528771296E1  -3.685976494027987E1  -1.888508536287355E1  -8.846403425045912E1  
 1.268092909535452E11   -2.656945847152074E1  -1.367980551653207E2  -1.362927805319152E1  -5.713010443776456E1  -1.363391604111508E1  -8.448077464231994E1  -2.036561620933557E1  -1.005741164010884E2  
 1.268215158924205E11   -3.460803242256965E1  -1.187868145822829E2  -1.365398099689000E1  -1.048634525673107E2  -1.366404057592470E1  -1.324143798345650E2  -2.245611417101963E1  -9.613995331248525E1  
 1.268337408312958E11   -2.708937627955085E1  -7.842437622682705E1  -1.371655623574407E1  -1.517912825325974E2  -1.374225883025401E1  -1.794921931167835E2  -2.165413869721450E1  -8.818472150314719E1  
 1.268459657701711E11   -2.412256491078337E1  -1.055431721696847E2  -1.364368854092196E1   1.613204039883173E2  -1.365952324974640E1   1.333429657328779E2  -2.116933046819459E1  -9.768744145762058E1  
 1.268581907090465E11   -2.657790105028875E1  -1.275228739899456E2  -1.360332654185931E1   1.135502191094604E2  -1.358961377326341E1   8.574397802396381E1  -2.329946950662543E1  -1.025841810761204E2  
 1.268704156479218E11   -3.079342316684566E1  -9.840391354572161E1  -1.364740599234459E1   6.612126336503538E1  -1.366569142066634E1   3.786414633756596E1  -2.406024363369661E1  -8.392869648446519E1  
 1.268826405867971E11   -2.499462421016458E1  -8.516564282848700E1  -1.367555116677396E1   1.907671505732759E1  -1.367701496749769E1  -8.896767998120044  -2.143278312003813E1  -8.218430850186719E1  
 1.268948655256724E11   -2.332604562142237E1  -1.062852478069654E2  -1.356316835223079E1  -2.801052657799379E1  -1.358543502566464E1  -5.626886295928597E1  -2.119180010351601E1  -9.478151214700637E1  
 1.269070904645477E11   -2.518627078559541E1  -1.138021744400516E2  -1.354665898348573E1  -7.626759761244031E1  -1.355180037265312E1  -1.044429135522453E2  -2.288931356371598E1  -9.440089998000609E1  
 1.269193154034230E11   -2.442585975905210E1  -9.690767988039062E1  -1.366096182624924E1  -1.236171294812660E2  -1.367413793864799E1  -1.524465052819449E2  -2.176326634896239E1  -8.030954953765858E1  
 1.269315403422983E11   -2.091750230948415E1  -1.077756066238585E2  -1.375387637322238E1  -1.699891361978015E2  -1.375151685480337E1   1.608705559933644E2  -1.908695948499809E1  -8.729246880802893E1  
 1.269437652811736E11   -2.062458461886304E1  -1.342522711232128E2  -1.368943570229775E1   1.431354638988352E2  -1.368886702674235E1   1.141153662934228E2  -1.875494761996225E1  -1.054756032731516E2  
 1.269559902200489E11   -2.427301863428045E1  -1.547970417626921E2  -1.365359927926945E1   9.574306993071087E1  -1.364643201757511E1   6.688486955044144E1  -2.057719455509989E1  -1.154720575585083E2  
 1.269682151589242E11   -2.907026096458590E1  -1.209327259669363E2  -1.365453397955880E1   4.832414078513452E1  -1.366651912810240E1   1.920748964589632E1  -2.168708801475681E1  -1.074961420207009E2  
 1.269804400977995E11   -2.357194394021951E1  -1.087089001688620E2  -1.360341766621365E1   1.421651322366373  -1.360271363775528E1  -2.779442740147468E1  -2.042560450008341E1  -1.094345014408720E2  
 1.269926650366748E11   -2.246898602616739E1  -1.282689309151874E2  -1.351161594041929E1  -4.596489240731282E1  -1.353320841363174E1  -7.557256835889672E1  -2.095820565111826E1  -1.216602442691371E2  
 1.270048899755501E11   -2.490672505023547E1  -1.353180331700625E2  -1.353746411865108E1  -9.400042350452388E1  -1.353966946053708E1  -1.233364500165541E2  -2.351702838515847E1  -1.203399231074832E2  
 1.270171149144254E11   -2.442575765162802E1  -1.149556532519622E2  -1.361914763064540E1  -1.414502784213605E2  -1.362293989829010E1  -1.709479309701333E2  -2.273409148174368E1  -1.004187216971539E2  
 1.270293398533007E11   -2.126018536697863E1  -1.244131328464965E2  -1.359333133297347E1   1.719520143839864E2  -1.360220665253171E1   1.421149312070158E2  -2.006941683494777E1  -1.068579456106124E2  
 1.270415647921760E11   -2.166143386271201E1  -1.459519168656194E2  -1.354169430047932E1   1.244929541697559E2  -1.355031369987264E1   9.445967850015725E1  -2.005197606282201E1  -1.225637446340548E2  
 1.270537897310514E11   -2.607738499026339E1  -1.504038703810710E2  -1.357294967970696E1   7.707146124733372E1  -1.357531432631297E1   4.688201890949048E1  -2.172635009861719E1  -1.266916327762037E2  
 1.270660146699267E11   -2.491013990815160E1  -1.101135967495967E2  -1.360577581149727E1   2.983547394746968E1  -1.360781469720350E1  -9.421699683084206E-2  -2.126225037912428E1  -1.202731130112298E2  
 1.270782396088020E11   -2.034940009457853E1  -1.200879552828588E2  -1.356259167808086E1  -1.702411959022804E1  -1.357940273339325E1  -4.748026815292971E1  -2.016541986695647E1  -1.320371724916897E2  
 1.270904645476773E11   -1.967877606535582E1  -1.403047158695862E2  -1.353615158095026E1  -6.481963412237136E1  -1.354960722025467E1  -9.490556753123119E1  -2.185495147907232E1  -1.500165963587125E2  
 1.271026894865526E11   -2.116422970262210E1  -1.486867464865784E2  -1.357323070023738E1  -1.121136454602973E2  -1.357630197396183E1  -1.425457087697519E2  -2.679334296638217E1  -1.431190288711242E2  
 1.271149144254279E11   -2.069612749162069E1  -1.418352772211136E2  -1.358439460056802E1  -1.591726209074002E2  -1.359549754225142E1   1.701301187704250E2  -2.427835338039602E1  -1.102336282565487E2  
 1.271271393643032E11   -1.875012148502377E1  -1.528036030898752E2  -1.354174857807543E1   1.535325386709995E2  -1.356328532534350E1   1.228510081529231E2  -2.123650451595190E1  -1.250729276420039E2  
 1.271393643031785E11   -1.892638119059022E1  -1.735493733357701E2  -1.354024136619358E1   1.061117581849847E2  -1.355041846969636E1   7.567558203919917E1  -2.231494564826667E1  -1.467972569803347E2  
 1.271515892420538E11   -2.172558899061187E1   1.720428674542536E2  -1.355472626807950E1   5.930766378994641E1  -1.357816552558951E1   2.825174299481366E1  -2.721586272913603E1  -1.455422007805603E2  
 1.271638141809291E11   -2.422989722019449E1  -1.761008951501685E2  -1.350143239851568E1   1.244465525420098E1  -1.351719445961740E1  -1.897892263911614E1  -2.549932622404778E1  -1.111789686153779E2  
 1.271760391198044E11   -2.303534860909706E1  -1.759690903962777E2  -1.343661218698690E1  -3.536104453708956E1  -1.343099193892259E1  -6.663323244225381E1  -2.254436980332829E1  -1.208039965198214E2  
 1.271882640586797E11   -2.495900382636477E1   1.672465534665491E2  -1.346802204723787E1  -8.339515880071649E1  -1.347687577449561E1  -1.144532844352975E2  -2.313790564771517E1  -1.337176615564756E2  
 1.272004889975550E11   -3.278085569866148E1  -1.599961049893807E2  -1.352574183572466E1  -1.303965207479549E2  -1.355347947127461E1  -1.617373777384646E2  -2.429567564961911E1  -1.257844850943764E2  
 1.272127139364303E11   -2.395358163104288E1  -1.231487543802751E2  -1.348116405394503E1  -1.773858772319951E2  -1.350497274484496E1   1.514429984837758E2  -2.194360891568912E1  -1.251808278162402E2  
 1.272249388753056E11   -2.032225446298729E1  -1.448253516745810E2  -1.342216044450688E1   1.350042974174354E2  -1.344272241387862E1   1.039625643076991E2  -2.142042078235179E1  -1.446741121391719E2  
 1.272371638141809E11   -2.043215815391598E1  -1.636944982286404E2  -1.343591637768036E1   8.746122865495302E1  -1.345171131996832E1   5.580525774793902E1  -2.471089612813589E1  -1.621687526504694E2  
 1.272493887530562E11   -2.144214413631607E1  -1.644791847515886E2  -1.349549883339597E1   3.999198488969022E1  -1.350477079625335E1   8.410412661288856  -2.984088815651981E1  -1.248930378312707E2  
 1.272616136919315E11   -1.967863011394499E1  -1.647651053211011E2  -1.351320381970049E1  -7.296586181159356  -1.350315409290937E1  -3.858678570115723E1  -2.342525348815136E1  -1.090384364086729E2  
 1.272738386308068E11   -1.862521425956826E1   1.775615987879408E2  -1.348778326516406E1  -5.440332666465335E1  -1.349774184652181E1  -8.631539925709348E1  -2.150720518038149E1  -1.306330333775111E2  
 1.272860635696821E11   -2.022336213803255E1   1.572230470843679E2  -1.353362303133459E1  -1.019168129667376E2  -1.354604014121844E1  -1.332933195748422E2  -2.364951013512938E1  -1.450266303261003E2  
 1.272982885085575E11   -2.451567436360570E1   1.567840752320636E2  -1.352462521319765E1  -1.486068363387656E2  -1.352876335535951E1   1.797115021751733E2  -2.537437430962106E1  -1.250128292758553E2  
 1.273105134474328E11   -2.385592554409057E1  -1.792183340059186E2  -1.342769567746160E1   1.636788384577231E2  -1.343333251426373E1   1.320697130971702E2  -2.216495269984901E1  -1.213107770497361E2  
 1.273227383863081E11   -2.232873995286616E1   1.710322381171006E2  -1.342030071133769E1   1.157225261661640E2  -1.342087129481134E1   8.428443550486867E1  -2.127585245786013E1  -1.355009263788406E2  
 1.273349633251834E11   -2.511268150966015E1   1.651947252624740E2  -1.350741200915089E1   6.806263712505572E1  -1.350924253502216E1   3.667361727875547E1  -2.284374007947161E1  -1.391111927012289E2  
 1.273471882640587E11   -2.461721523676047E1  -1.586765453501392E2  -1.356901499020055E1   2.095207245016722E1  -1.359545066355942E1  -1.034087323641649E1  -2.172128519245983E1  -1.260103493181537E2  
 1.273594132029340E11   -1.958341266349045E1  -1.652516431064062E2  -1.359475827903826E1  -2.642531873148202E1  -1.361335427829924E1  -5.744078648373142E1  -1.899703739715162E1  -1.361175796869557E2  
 1.273716381418093E11   -1.825871841745985E1   1.711081026870826E2  -1.366556780603240E1  -7.375342530767397E1  -1.365757578801988E1  -1.047036964533404E2  -1.886439066653463E1  -1.566479112007737E2  
 1.273838630806846E11   -2.020348325401323E1   1.535948674685198E2  -1.371563481343697E1  -1.202463632484780E2  -1.371318832305566E1  -1.512596853814594E2  -2.144763454945572E1  -1.676754716577795E2  
 1.273960880195599E11   -2.242054496581849E1   1.673176034337450E2  -1.361691687554660E1  -1.670775282338273E2  -1.362936961169445E1   1.620601090438077E2  -2.242083314185317E1  -1.525740930324162E2  
 1.274083129584352E11   -1.923430740486026E1   1.726185818909202E2  -1.355328026054061E1   1.451065801944062E2  -1.355513903290913E1   1.147219602017138E2  -1.993158823011435E1  -1.555970887631031E2  
 1.274205378973105E11   -1.767157445685170E1   1.534998830525638E2  -1.362305456536432E1   9.767231401919329E1  -1.362315655245929E1   6.750444299268479E1  -1.964948042865219E1  -1.755346793880798E2  
 1.274327628361858E11   -1.902418340436830E1   1.344125206041906E2  -1.362848237467679E1   5.123269255564351E1  -1.362309670916757E1   2.144325565887703E1  -2.263786902473873E1   1.686363954659358E2  
 1.274449877750611E11   -2.172786257901059E1   1.361466542183069E2  -1.344823376849103E1   4.099334669229942  -1.344253640170211E1  -2.539844056181590E1  -2.619204364032787E1  -1.731324634694623E2  
 1.274572127139364E11   -2.071653242175156E1   1.450924376796347E2  -1.333388935881651E1  -4.410646283697000E1  -1.332905383568860E1  -7.362544694947540E1  -2.387699276607216E1  -1.603518418096825E2  
 1.274694376528117E11   -1.965760762158319E1   1.327286531926693E2  -1.339955648817454E1  -9.226220034987418E1  -1.338185836176480E1  -1.212672266462097E2  -2.354011247667691E1  -1.708076344674130E2  
 1.274816625916870E11   -2.151371767046087E1   1.189048768203967E2  -1.339204337418390E1  -1.393162858010651E2  -1.338549585941245E1  -1.678920203691117E2  -2.574825434366133E1  -1.651533191889109E2  
 1.274938875305624E11   -2.368745560358971E1   1.315115520296630E2  -1.327625969573431E1   1.729344305028219E2  -1.327037414618266E1   1.445091247923899E2  -2.374508761769348E1  -1.478489332804769E2  
 1.275061124694377E11   -2.127488460523524E1   1.370291027851223E2  -1.329151600423124E1   1.245949583557846E2  -1.328313936584556E1   9.632678478636954E1  -2.123720865517140E1  -1.567757540978995E2  
 1.275183374083130E11   -2.051190809071030E1   1.185300565517664E2  -1.344377223605200E1   7.690759493701583E1  -1.342959398382559E1   4.901414648880122E1  -2.146320306362642E1  -1.719292604657096E2  
 1.275305623471883E11   -2.358059373863465E1   1.036120299109990E2  -1.345814744899493E1   3.054934768236966E1  -1.345812196229978E1   2.778247559795711  -2.332143314175886E1  -1.683763427015057E2  
 1.275427872860636E11   -2.613120844385697E1   1.315366386475893E2  -1.333943157260800E1  -1.706293695537044E1  -1.333526345767437E1  -4.446534839292180E1  -2.153261232834642E1  -1.576201160515740E2  
 1.275550122249389E11   -2.199042222858357E1   1.344256102455354E2  -1.336036156337407E1  -6.535519431192718E1  -1.335731616827943E1  -9.231463328805495E1  -1.943618839622300E1  -1.685276036047744E2  
 1.275672371638142E11   -2.135023933998792E1   1.116538364947449E2  -1.346928216031057E1  -1.122138837380955E2  -1.345897730050612E1  -1.392763589528912E2  -1.965689194981309E1   1.753069272679845E2  
 1.275794621026895E11   -2.521127564124776E1   9.619085259580278E1  -1.340895062314347E1  -1.588261583300274E2  -1.340848894985770E1   1.742184083752974E2  -2.148316665811899E1   1.721221381063407E2  
 1.275916870415648E11   -2.755365702297057E1   1.338783439309779E2  -1.328287640816488E1   1.533590690291485E2  -1.327097519829504E1   1.266929054456466E2  -2.108732849740845E1   1.791854389259081E2  
 1.276039119804401E11   -2.281744325851624E1   1.346062968355093E2  -1.333041433582700E1   1.052921933126305E2  -1.332447875465527E1   7.868075045611525E1  -1.983687787041910E1   1.712909728445076E2  
 1.276161369193154E11   -2.243996596124305E1   1.126623729970093E2  -1.342828397629147E1   5.837438170903511E1  -1.341973758882068E1   3.171086356773677E1  -2.068123109966246E1   1.588178622129835E2  
 1.276283618581907E11   -2.599625925267354E1   1.090941057765911E2  -1.330859928683062E1   1.149408649144121E1  -1.331552466285355E1  -1.501648196080682E1  -2.258600945077237E1   1.636273589119033E2  
 1.276405867970660E11   -2.470435291646449E1   1.341925205788324E2  -1.322798290916187E1  -3.641446359407345E1  -1.323753368578687E1  -6.313358885089682E1  -2.111297864141858E1   1.738991194107055E2  
 1.276528117359413E11   -2.141020522844380E1   1.213065624572311E2  -1.335137342108720E1  -8.446475326849762E1  -1.336809715940392E1  -1.111036881964013E2  -1.916284942074820E1   1.642062516094237E2  
 1.276650366748166E11   -2.191645801799965E1   9.308160959004441E1  -1.350814400982116E1  -1.310196912625617E2  -1.351139501121735E1  -1.576637816740031E2  -1.939856767633110E1   1.479465500281558E2  
 1.276772616136919E11   -2.821818509480711E1   7.457392938299405E1  -1.337142977843245E1  -1.770777523896933E2  -1.337325213536859E1   1.561728532237602E2  -2.099301506989123E1   1.430053405764159E2  
 1.276894865525672E11   -3.127530978327241E1   1.534329439046994E2  -1.320788961495110E1   1.352989509549561E2  -1.323311447960538E1   1.081114216499750E2  -2.112021278792780E1   1.448927789692284E2  
 1.277017114914425E11   -2.423143651013891E1   1.470709239766242E2  -1.324860498150984E1   8.709538174196766E1  -1.325252928657091E1   6.041451114397008E1  -2.089084075117770E1   1.360068598779358E2  
 1.277139364303178E11   -2.372849028031131E1   1.333142718212969E2  -1.327057374746181E1   4.049133640518161E1  -1.328124755863508E1   1.299481682619379E1  -2.318615411933057E1   1.246499301534388E2  
 1.277261613691932E11   -2.334791504888877E1   1.419354456872006E2  -1.317819914056346E1  -7.107558592878828  -1.318503849654709E1  -3.435371950804870E1  -2.653258094298598E1   1.454556513218850E2  
 1.277383863080685E11   -2.018430486833906E1   1.396561310786616E2  -1.317636565682296E1  -5.523506237398886E1  -1.317146614662374E1  -8.281542421919814E1  -2.301635751668312E1   1.652144862598898E2  
 1.277506112469438E11   -1.855381845525911E1   1.207514076244106E2  -1.329592269401901E1  -1.022532085781609E2  -1.330270374494778E1  -1.300958437985232E2  -2.052569696481908E1   1.523383268959032E2  
 1.277628361858191E11   -1.963488890124723E1   1.034840327942681E2  -1.327754759383718E1  -1.488727078494667E2  -1.329850202216850E1  -1.766688134608121E2  -2.093473754513392E1   1.401335846317501E2  
 1.277750611246944E11   -2.157167108486440E1   1.059668180178639E2  -1.314443897176530E1   1.637928157912612E2  -1.315720814655882E1   1.353270712600901E2  -2.168043175520623E1   1.419375241630517E2  
 1.277872860635697E11   -1.997534899304620E1   1.132190519578014E2  -1.320996110713695E1   1.155075134201542E2  -1.321957564859506E1   8.678844223197692E1  -2.027726457560025E1   1.449103321031178E2  
 1.277995110024450E11   -1.829566321982592E1   9.873564467443021E1  -1.341127090675881E1   6.876271433848287E1  -1.343013622300099E1   3.988410665233456E1  -1.901705790738265E1   1.328739768832037E2  
 1.278117359413203E11   -1.933283907825535E1   8.056794382047163E1  -1.336075746648435E1   2.268567339574404E1  -1.338506906556965E1  -6.231413386262084  -1.970379433223191E1   1.205093011157113E2  
 1.278239608801956E11   -2.226706331178447E1   7.852558670207537E1  -1.314989535332877E1  -2.461554624271405E1  -1.316909913459743E1  -5.387143308322430E1  -2.077804753525100E1   1.187954294925280E2  
 1.278361858190709E11   -2.224932209744659E1   9.355395009003730E1  -1.315417038159923E1  -7.244087633177195E1  -1.317793731888865E1  -1.026887850485955E2  -2.056728104622917E1   1.201778075307756E2  
 1.278484107579462E11   -2.070509241139725E1   8.687073975325296E1  -1.330585480421192E1  -1.197189529973120E2  -1.332056605990194E1  -1.499421460542773E2  -2.008876657959339E1   1.118020681868413E2  
 1.278606356968215E11   -2.207987283097628E1   7.735033856073318E1  -1.321687176005298E1  -1.655431670403949E2  -1.324271610248606E1   1.634878603202901E2  -2.130410830268322E1   1.042634465042514E2  
 1.278728606356968E11   -2.362798575898753E1   9.044437993169909E1  -1.309746679481482E1   1.465045798794488E2  -1.311476641137270E1   1.153680606769048E2  -2.238136420903349E1   1.106037281549619E2  
 1.278850855745721E11   -2.104849704320764E1   9.913328507872920E1  -1.319965394958887E1   9.845240188106786E1  -1.321957030909776E1   6.654936181493505E1  -2.088664534847896E1   1.149486375334903E2  
 1.278973105134474E11   -1.954852247130373E1   8.632925567586223E1  -1.335019518378394E1   5.204185862910909E1  -1.335281934420217E1   2.000314689717992E1  -1.988487007654091E1   1.035216453490384E2  
 1.279095354523227E11   -2.044342893697261E1   7.805816874778154E1  -1.322898285342837E1   5.630669091920748  -1.323591575427944E1  -2.671869495064516E1  -2.102361111907061E1   9.284169236713447E1  
 1.279217603911980E11   -2.075878341122386E1   8.402427376505524E1  -1.313188714388348E1  -4.242603455893588E1  -1.314561961738823E1  -7.554571711388552E1  -2.252526923036880E1   9.703531684273683E1  
 1.279339853300734E11   -1.875383014052725E1   8.364429379567575E1  -1.331108981076589E1  -9.032103821233001E1  -1.332122436824522E1  -1.237123926521882E2  -2.117493605589574E1   1.032264163340255E2  
 1.279462102689487E11   -1.774621176850457E1   6.879732004937469E1  -1.346538510053484E1  -1.361191984192250E2  -1.347009026345119E1  -1.698077248351607E2  -2.010951620268279E1   9.170263210009014E1  
 1.279584352078240E11   -1.859314828108917E1   5.691044924410305E1  -1.326032326912256E1   1.778516564277309E2  -1.328327882418416E1   1.437586554543881E2  -2.102589212134423E1   8.011161286813174E1  
 1.279706601466993E11   -1.943363660447646E1   5.392654324076204E1  -1.314299160276740E1   1.298280270103369E2  -1.315981143378051E1   9.522281131009449E1  -2.293712937214034E1   7.793144692290049E1  
 1.279828850855746E11   -1.900165188426069E1   4.989507591170890E1  -1.327792025916557E1   8.241840548843885E1  -1.328456543623588E1   4.700324954052067E1  -2.313692125667177E1   8.743864242845147E1  
 1.279951100244499E11   -1.941517951106248E1   3.527657526723044E1  -1.332349395199857E1   3.632458778596351E1  -1.333334651434595E1   1.253786148038339  -2.272865216999968E1   8.565208290352446E1  
 1.280073349633252E11   -2.218621067257962E1   2.515768516843159E1  -1.308964121217695E1  -1.059460179225531E1  -1.310650277801046E1  -4.600967638517103E1  -2.307407006186573E1   8.784867087523993E1  
 1.280195599022005E11   -2.538626634777756E1   3.885687484277160E1  -1.300423051956348E1  -5.916104582266981E1  -1.302112661722999E1  -9.456758799291009E1  -2.234424147447938E1   9.391411961725267E1  
 1.280317848410758E11   -2.370667648804401E1   5.478117858266680E1  -1.314983113396292E1  -1.067534577957825E2  -1.315272279935101E1  -1.424091003516825E2  -2.037227871907669E1   9.094688522857715E1  
 1.280440097799511E11   -2.298941128584689E1   4.826682170079459E1  -1.317180691640340E1  -1.530073263690405E2  -1.316287231204485E1   1.713273529261209E2  -1.953519923103760E1   7.760367651516033E1  
 1.280562347188264E11   -2.386848576155165E1   4.788329085633029E1  -1.298755924281281E1   1.595698289509554E2  -1.300395477706171E1   1.238344017459088E2  -2.021813081282885E1   6.731529383918679E1  
 1.280684596577017E11   -2.380545769682985E1   5.758771044749231E1  -1.297952140417438E1   1.110866250219887E2  -1.298172912838709E1   7.539211161016169E1  -2.108542814495955E1   6.610741362406461E1  
 1.280806845965770E11   -2.185337340625785E1   5.703776749598546E1  -1.313125279227669E1   6.371850769814683E1  -1.313571356478745E1   2.822824754288857E1  -2.056474858193875E1   6.519836837718157E1  
 1.280929095354523E11   -2.169194042694793E1   4.667486088783276E1  -1.308960064227189E1   1.723126835126532E1  -1.308433534657813E1  -1.820216235588603E1  -2.043721689033421E1   5.605497012949914E1  
 1.281051344743276E11   -2.268800494826514E1   4.425102615923746E1  -1.293292260324679E1  -3.050059831279763E1  -1.292277246014589E1  -6.568136448994660E1  -2.114220959635221E1   4.879650199827045E1  
 1.281173594132029E11   -2.274122546826492E1   5.049634838825369E1  -1.296689343077379E1  -7.868842090738129E1  -1.295942218868230E1  -1.141756488989534E2  -2.208657302649974E1   4.715927385518563E1  
 1.281295843520783E11   -2.156720175817180E1   4.782216957862829E1  -1.311479335754373E1  -1.260372347868583E2  -1.311220185699431E1  -1.608774432308859E2  -2.214811446571499E1   4.536541406987175E1  
 1.281418092909536E11   -2.213519110501575E1   4.187748378707845E1  -1.300692230674023E1  -1.729991950905863E2  -1.300067575648732E1   1.529001461595984E2  -2.288432980610187E1   3.885441428797015E1  
 1.281540342298289E11   -2.257482260453335E1   4.790819308117351E1  -1.289458081579326E1   1.387042831666363E2  -1.288640968908504E1   1.047290046441674E2  -2.439775595204821E1   3.669622677120390E1  
 1.281662591687042E11   -2.095860714714144E1   5.241394352883779E1  -1.300339144838008E1   9.007898313122932E1  -1.299493631654391E1   5.652882603112705E1  -2.569329020475705E1   4.737828901467157E1  
 1.281784841075795E11   -1.966977679715775E1   4.186908795022303E1  -1.315818840038236E1   4.334023931532820E1  -1.313374450227923E1   1.052195519278785E1  -2.454820117382408E1   5.169373484033999E1  
 1.281907090464548E11   -2.038612657426236E1   3.322372019792557E1  -1.301172912244839E1  -3.578728400108701  -1.301672815838574E1  -3.607867710073404E1  -2.466204469405009E1   4.852229553300512E1  
 1.282029339853301E11   -2.095928743049792E1   3.701730334540077E1  -1.294277844297747E1  -5.223926212486498E1  -1.294289394342561E1  -8.410955260310509E1  -2.552515269449877E1   5.025486999927280E1  
 1.282151589242054E11   -1.926964643085919E1   3.925058384429181E1  -1.314378903132008E1  -1.003585054789294E2  -1.314786087365453E1  -1.320934865718527E2  -2.526533706968197E1   6.218586326211952E1  
 1.282273838630807E11   -1.790732263981463E1   2.478877155097587E1  -1.328418473491803E1  -1.462972810670196E2  -1.328742209718323E1  -1.772709289266078E2  -2.358424885618501E1   6.341927842948061E1  
 1.282396088019560E11   -1.857104764808300E1   8.384666959419771  -1.307797211448051E1   1.671476452324719E2  -1.306150123981686E1   1.367929124280805E2  -2.237677198869029E1   6.184375007833113E1  
 1.282518337408313E11   -2.055518063737095E1  -1.608019720563466  -1.292161277517597E1   1.186477327579699E2  -1.292198797820796E1   8.847877129356338E1  -2.118933399230890E1   5.353776007173142E1  
 1.282640586797066E11   -2.253281650051072E1   1.494276193422907  -1.299752590852628E1   7.046232352553567E1  -1.299844794242508E1   4.092408730487191E1  -2.107882308666896E1   4.358259763907967E1  
 1.282762836185819E11   -2.318619334455460E1   2.108319077527632  -1.301333540793840E1   2.345215080280442E1  -1.302011128166076E1  -5.712497283109782  -2.188609017129938E1   3.422075577476860E1  
 1.282885085574572E11   -2.545642511466875E1   7.022758641493880  -1.287580653585643E1  -2.437474963327913E1  -1.287466216542480E1  -5.313327647954041E1  -2.352561411843241E1   3.353504041467663E1  
 1.283007334963325E11   -2.547755293788500E1   3.174701206951675E1  -1.289496341289176E1  -7.313040927704093E1  -1.288597382682034E1  -1.013475991206217E2  -2.414395733964447E1   4.348682354550850E1  
 1.283129584352078E11   -2.193861433509055E1   3.604565661186079E1  -1.315459614776691E1  -1.209334054536197E2  -1.313849947052966E1  -1.488664986408371E2  -2.270569915109516E1   4.869703037027835E1  
 1.283251833740831E11   -2.082567056397720E1   2.173523934867113E1  -1.317728092942787E1  -1.663185092260027E2  -1.317294552186570E1   1.654764648628348E2  -2.215830420435697E1   4.200546837777532E1  
 1.283374083129584E11   -2.183609968516432E1   1.717919249574551E1  -1.297228782308535E1   1.461660006774425E2  -1.296227471229557E1   1.183254267924637E2  -2.248401136425523E1   4.116426083122456E1  
 1.283496332518337E11   -2.181561239459551E1   2.563394540134533E1  -1.298019575012671E1   9.759862105898321E1  -1.299801458495057E1   6.967757024748255E1  -2.240907505214763E1   4.566847376940379E1  
 1.283618581907091E11   -1.952003968449781E1   2.395674828808753E1  -1.322697236955609E1   5.047292864215132E1  -1.323174973168033E1   2.274258679431989E1  -2.093951686818731E1   4.802807353809703E1  
 1.283740831295844E11   -1.886575269390966E1   1.014244319258219E1  -1.315354377629022E1   4.933871604954534  -1.316117156114115E1  -2.263801968506482E1  -1.993250130666293E1   4.200215321001635E1  
 1.283863080684597E11   -1.950456714735774E1   2.318084006804638E-1  -1.291583078641617E1  -4.249790610728498E1  -1.292655907610191E1  -7.000795610900296E1  -1.917968518039700E1   3.629694899744250E1  
 1.283985330073350E11   -2.061317608599080E1  -3.906848357907003  -1.286483736869515E1  -9.088583418704505E1  -1.286512580939413E1  -1.182587659274272E2  -1.892663268726692E1   2.826357362642182E1  
 1.284107579462103E11   -2.111077243687356E1  -2.206130343580865  -1.297755135681756E1  -1.381729095605271E2  -1.298562198756805E1  -1.655122187583807E2  -1.899248363307742E1   2.237207428954174E1  
 1.284229828850856E11   -2.153287779000574E1  -3.035478430887992  -1.289032186132060E1   1.753282187454726E2  -1.288870479024429E1   1.477990309060244E2  -1.921464815713085E1   1.631352125619524E1  
 1.284352078239609E11   -2.153293466699894E1   1.115803728541927  -1.274408488212716E1   1.271503937118274E2  -1.275493607994421E1   9.964642499645539E1  -1.952626303858886E1   1.148466912292979E1  
 1.284474327628362E11   -2.087251604805722E1   1.451046812915822  -1.280780116420976E1   7.899299575718614E1  -1.281725930788411E1   5.139350102416100E1  -2.023548748544713E1   8.335552983699362  
 1.284596577017115E11   -2.008432561384962E1  -4.677053866896303  -1.295613587491322E1   3.214730691561734E1  -1.296250582493945E1   4.083492618350833  -2.055099923416955E1   9.661361190759241  
 1.284718826405868E11   -2.067355710037511E1  -1.199336458121423E1  -1.285087133012995E1  -1.465216630447595E1  -1.285289454822228E1  -4.248074828851631E1  -2.054449904236305E1   9.567988484168097  
 1.284841075794621E11   -2.134596417291787E1  -1.211186319684426E1  -1.273356405663638E1  -6.251994928266578E1  -1.273201789879955E1  -9.089654484956566E1  -2.017606664855745E1   7.252216713849226  
 1.284963325183374E11   -2.141659000322589E1  -1.105127050128188E1  -1.281910141572474E1  -1.107979903318810E2  -1.281876975325293E1  -1.391276658385249E2  -2.035072992449475E1   2.881517139895022  
 1.285085574572127E11   -2.117932442616907E1  -1.591388944543912E1  -1.293140761107969E1  -1.572461782071133E2  -1.293752526265432E1   1.741663895839095E2  -2.071613496995958E1   2.857120861442556E-2  
 1.285207823960880E11   -2.260737231608726E1  -1.871766380497355E1  -1.281231433532580E1   1.557574305628340E2  -1.281166492750589E1   1.271594670167440E2  -2.142617954533540E1   3.080084974572655E-1  
 1.285330073349633E11   -2.337844647710049E1  -8.328558550868456  -1.277644297975727E1   1.075339684113941E2  -1.278405984397708E1   7.834057485877011E1  -2.147640738582805E1   3.621244476137243  
 1.285452322738386E11   -2.174009205522206E1   2.097778497376862E-3  -1.295732667893156E1   6.004431030956583E1  -1.297493446598831E1   3.036277602970974E1  -2.098646754461232E1   5.196394097229926  
 1.285574572127139E11   -2.031919518232892E1  -8.407053566608576  -1.303450516135352E1   1.445812376943356E1  -1.303657482034163E1  -1.542413213531892E1  -2.063802595365042E1   2.650906125491610  
 1.285696821515893E11   -2.071563929326409E1  -1.467554759230539E1  -1.284786185142696E1  -3.269456733528495E1  -1.285505556130404E1  -6.286128448643856E1  -2.054187524861925E1   3.473910904331544  
 1.285819070904646E11   -2.084520212262932E1  -1.492643923556800E1  -1.280965893735676E1  -8.082446563818621E1  -1.280728438833785E1  -1.114002304850330E2  -1.983279218167002E1   1.519084219114044  
 1.285941320293399E11   -2.033246308003102E1  -1.687152898203333E1  -1.299872016334371E1  -1.285966993936732E2  -1.299927407184747E1  -1.592860265172637E2  -1.953011713435255E1  -2.602287007391363  
 1.286063569682152E11   -2.047688944039035E1  -2.622442849029301E1  -1.304789396071503E1  -1.740985150821160E2  -1.304927318954970E1   1.544231619306378E2  -1.958977922626112E1  -7.883034586317079  
 1.286185819070905E11   -2.234636775647487E1  -2.654979893954177E1  -1.286071626930143E1   1.388394225950771E2  -1.285707290950544E1   1.070587714177354E2  -2.012805165458511E1  -8.992818528961626  
 1.286308068459658E11   -2.263003071519183E1  -1.417032548491143E1  -1.283847410773742E1   9.073495557210509E1  -1.285121752585242E1   5.820212715088957E1  -1.999785881909659E1  -8.301114637894756  
 1.286430317848411E11   -2.082915930251011E1  -1.001139828674069E1  -1.303095991916792E1   4.344227632160396E1  -1.302071641867232E1   1.099000154311472E1  -1.966088505056435E1  -9.851158481171369  
 1.286552567237164E11   -2.027091970022896E1  -1.775228362469727E1  -1.298880640058943E1  -2.248574961543179  -1.300321080218630E1  -3.538268543519511E1  -1.975998838804884E1  -1.328144139757903E1  
 1.286674816625917E11   -2.065982707732788E1  -1.687377873590524E1  -1.282495008741389E1  -4.989632577625250E1  -1.282451483731758E1  -8.346870814093468E1  -1.978033518468481E1  -1.226548549925573E1  
 1.286797066014670E11   -1.981647883321456E1  -1.398566356192552E1  -1.289074313639203E1  -9.810682061282857E1  -1.289623181061050E1  -1.319230547307020E2  -1.934190638645952E1  -1.393701864032085E1  
 1.286919315403423E11   -1.842187910928936E1  -1.878530437501884E1  -1.307416124357119E1  -1.442978550647690E2  -1.307185865774296E1  -1.787190538147983E2  -1.920100802749936E1  -1.732704101342567E1  
 1.287041564792176E11   -1.839881784126584E1  -2.841636400704483E1  -1.294285809849412E1   1.697076902095730E2  -1.293807299024809E1   1.353570378019448E2  -1.967556664038261E1  -1.901129375482229E1  
 1.287163814180929E11   -1.879143988064859E1  -3.016606128730416E1  -1.276683468829365E1   1.218753797342187E2  -1.275521102489521E1   8.731742076331740E1  -1.914963340619027E1  -1.542785776726646E1  
 1.287286063569682E11   -1.850435166229887E1  -3.227613093081451E1  -1.280069616314048E1   7.347132444059687E1  -1.279199797661732E1   3.865738630103185E1  -1.828834526244173E1  -1.982409371963574E1  
 1.287408312958435E11   -1.818185295874295E1  -3.779923063208152E1  -1.292325086256375E1   2.664038076529244E1  -1.291641109234938E1  -8.537428919280888  -1.824496726001791E1  -2.608838941933296E1  
 1.287530562347188E11   -1.902044809819000E1  -4.248649719835559E1  -1.277853923136000E1  -1.979148802058491E1  -1.279179384919461E1  -5.521828254781483E1  -1.868392085352499E1  -2.816346915699879E1  
 1.287652811735941E11   -1.916623657677686E1  -3.814063338458594E1  -1.268412991971281E1  -6.794146752742137E1  -1.267571788690746E1  -1.031181500258071E2  -1.820004275049380E1  -2.691511453597089E1  
 1.287775061124694E11   -1.827132556044573E1  -3.949303159790659E1  -1.281086285519836E1  -1.160280427047517E2  -1.280820725915476E1  -1.518365089723224E2  -1.753745834248703E1  -3.273784569411370E1  
 1.287897310513447E11   -1.802481164590656E1  -4.797370220406259E1  -1.292015530810485E1  -1.626711753509715E2  -1.291197401139044E1   1.618750382616023E2  -1.755149755641909E1  -4.063919715499303E1  
 1.288019559902201E11   -1.933259616860887E1  -5.092173218786090E1  -1.277615271754039E1   1.507215155597319E2  -1.277706584953195E1   1.146722543726830E2  -1.818082718589636E1  -4.550942638351202E1  
 1.288141809290954E11   -1.898100387273642E1  -4.169526868792688E1  -1.273285418714369E1   1.019607088063688E2  -1.273869950099873E1   6.597111012527154E1  -1.821123980647669E1  -4.673543595943385E1  
 1.288264058679707E11   -1.717070618889738E1  -4.482792021563868E1  -1.294009694491807E1   5.424233744202158E1  -1.293752504767005E1   1.807436325778872E1  -1.814636460778314E1  -5.404515126888704E1  
 1.288386308068460E11   -1.643591479395810E1  -5.951141412488464E1  -1.309848176718128E1   8.240929042150333  -1.308866586949337E1  -2.790693998437151E1  -1.892969102930171E1  -6.372106858606676E1  
 1.288508557457213E11   -1.815255834014461E1  -7.293420633097321E1  -1.290442888717456E1  -3.809099709689889E1  -1.289104382718500E1  -7.436048531282950E1  -2.152946013026732E1  -6.996959145170284E1  
 1.288630806845966E11   -2.076146220541084E1  -6.571687958963165E1  -1.281962976439668E1  -8.669878137618952E1  -1.280858398714929E1  -1.227068871984072E2  -2.382969722450299E1  -5.337101247202705E1  
 1.288753056234719E11   -1.960555995935042E1  -4.865751770730606E1  -1.300517888962713E1  -1.343501435872689E2  -1.300290877902796E1  -1.705100508222575E2  -2.249822217156214E1  -3.970539685666181E1  
 1.288875305623472E11   -1.753140174230842E1  -5.493734786349955E1  -1.302640037756989E1  -1.798845948222734E2  -1.300999315205062E1   1.439257857999539E2  -2.201119531133112E1  -4.099606634254052E1  
 1.288997555012225E11   -1.736727052153750E1  -6.311514723296036E1  -1.281561073613990E1   1.327131140630637E2  -1.282088218958262E1   9.688055885594609E1  -2.198063423905277E1  -2.909491176354059E1  
 1.289119804400978E11   -1.720859616006940E1  -6.705493889987457E1  -1.284553249284551E1   8.357672296141249E1  -1.283218019197085E1   4.848523461570877E1  -1.905076707779339E1  -2.655789899645887E1  
 1.289242053789731E11   -1.670213901477901E1  -7.266697257928774E1  -1.306124057091479E1   3.651720388594034E1  -1.306092438811383E1   1.419961225896037  -1.731261691182814E1  -3.972229370352117E1  
 1.289364303178484E11   -1.672252617420013E1  -8.540339442533985E1  -1.304301544483809E1  -9.132991539665920  -1.303884298114073E1  -4.399602403374068E1  -1.760206873836319E1  -5.614596221572402E1  
 1.289486552567237E11   -1.876753443893613E1  -9.467291195727481E1  -1.278287506687184E1  -5.641274364271445E1  -1.277017549221650E1  -9.089349938577171E1  -1.975218019307654E1  -6.082332157283359E1  
 1.289608801955990E11   -2.068642081120207E1  -8.545426477443407E1  -1.273833817091870E1  -1.052229599499619E2  -1.271601630991571E1  -1.394099142063480E2  -2.021590897161513E1  -5.111539543491551E1  
 1.289731051344743E11   -1.948909774031370E1  -7.531658496541999E1  -1.289989523294004E1  -1.524356850611875E2  -1.287348396337520E1   1.732213828331647E2  -1.905113317086294E1  -5.198861599216608E1  
 1.289853300733496E11   -1.836604101406074E1  -8.283353574064472E1  -1.283245913653658E1   1.609368434496987E2  -1.281791559399376E1   1.271673978859438E2  -1.950348599886542E1  -5.862679197757390E1  
 1.289975550122250E11   -1.891989498106316E1  -8.873963858610696E1  -1.265928265967095E1   1.132414749784190E2  -1.263934599595268E1   7.966758428040122E1  -2.021060356821911E1  -4.998191444196981E1  
 1.290097799511003E11   -1.906926203509390E1  -8.863545065766708E1  -1.271456656808396E1   6.508500547249989E1  -1.269866010194111E1   3.144772966118964E1  -1.814204336183872E1  -4.592982453737106E1  
 1.290220048899756E11   -1.850297513358812E1  -9.268420136444682E1  -1.281221665274896E1   1.830720505703678E1  -1.280912422825865E1  -1.500603184215779E1  -1.675615298268494E1  -5.843310191391917E1  
 1.290342298288509E11   -1.898667900088760E1  -1.059665488582337E2  -1.265437095249518E1  -2.828772196960634E1  -1.264502464999643E1  -6.151345961211160E1  -1.768075713972413E1  -7.267785903681518E1  
 1.290464547677262E11   -2.163804205251551E1  -1.091818498271362E2  -1.250754309837424E1  -7.657515668995841E1  -1.246911873820304E1  -1.094236185725820E2  -1.963331904952349E1  -7.149937976826712E1  
 1.290586797066015E11   -2.277914117029882E1  -9.405088413053218E1  -1.255044553429122E1  -1.252751249779518E2  -1.253588266756246E1  -1.578657824455301E2  -1.927147883511073E1  -6.218409713751142E1  
 1.290709046454768E11   -2.128820009085505E1  -8.996408091950501E1  -1.265170736182897E1  -1.722437316183852E2  -1.263345056753991E1   1.551408329393686E2  -1.808477712986347E1  -6.601762506407300E1  
 1.290831295843521E11   -2.198903265257598E1  -9.743612036593625E1  -1.253119381743562E1   1.405796028094247E2  -1.251250238096380E1   1.082361543126303E2  -1.857548061574184E1  -7.302769910597426E1  
 1.290953545232274E11   -2.312328388254089E1  -8.389210455433019E1  -1.246150814205138E1   9.182066823635950E1  -1.245075260546667E1   6.012720329980292E1  -1.905631887948448E1  -6.900818376956347E1  
 1.291075794621027E11   -2.078866598767900E1  -7.463289032628612E1  -1.264639025826969E1   4.368094891563823E1  -1.261139640537544E1   1.202568161094096E1  -1.789928168406916E1  -6.806853714003340E1  
 1.291198044009780E11   -1.894248423587513E1  -8.575843290407599E1  -1.275492881262487E1  -2.782783877915020  -1.274382004459156E1  -3.439156593252468E1  -1.712530156045371E1  -7.684468370476431E1  
 1.291320293398533E11   -2.023969587545206E1  -9.696344953574146E1  -1.260839444196947E1  -4.973342239297132E1  -1.258817070583515E1  -8.137207359920807E1  -1.797848401278179E1  -8.553316193159286E1  
 1.291442542787286E11   -2.125118473712865E1  -8.467034815987201E1  -1.256888381560551E1  -9.800360028561161E1  -1.255180326223860E1  -1.302857045155712E2  -1.880765043360721E1  -8.299370489587911E1  
 1.291564792176039E11   -1.864053406023083E1  -7.988009492685414E1  -1.279446998791676E1  -1.463848312341562E2  -1.278431511405455E1  -1.778424494331277E2  -1.807308936985713E1  -8.224386733078065E1  
 1.291687041564792E11   -1.691816587237944E1  -9.553653322185508E1  -1.296431102689264E1   1.682068309122777E2  -1.296994011449468E1   1.360825222182419E2  -1.753019806355980E1  -9.094137048147491E1  
 1.291809290953545E11   -1.820500840607699E1  -1.130505718213935E2  -1.277441761116817E1   1.219962962982497E2  -1.278477912530844E1   8.982643184352109E1  -1.897400968605176E1  -1.017130241314656E2  
 1.291931540342298E11   -2.102676629922846E1  -1.088015807214759E2  -1.267595023582270E1   7.342005841291866E1  -1.268890888162856E1   4.204003335363078E1  -2.103001885079036E1  -9.370189369816394E1  
 1.292053789731051E11   -1.978591521567621E1  -9.301977873183030E1  -1.282532402819904E1   2.611241270810630E1  -1.283132723733636E1  -5.328890559987026  -1.968111404901855E1  -8.419384182178422E1  
 1.292176039119804E11   -1.785400121754526E1  -1.028118584143590E2  -1.276582561316061E1  -1.973489804534706E1  -1.277796997187690E1  -5.165442069450333E1  -1.892455047433030E1  -9.469903058540265E1  
 1.292298288508557E11   -1.881643782060951E1  -1.133462536232130E2  -1.256969438230972E1  -6.746031414297320E1  -1.258567052619085E1  -9.945732196220786E1  -2.103213005518916E1  -9.953607335978654E1  
 1.292420537897311E11   -1.979817798640762E1  -1.071004442343604E2  -1.260441911623784E1  -1.163234244396844E2  -1.261567933871477E1  -1.480351127435621E2  -2.146594815093271E1  -8.050634698309642E1  
 1.292542787286064E11   -1.813153479925451E1  -1.020752371736473E2  -1.288103307710726E1  -1.636538340236804E2  -1.290128134115810E1   1.648094367360952E2  -1.874786455825062E1  -7.763673010582039E1  
 1.292665036674817E11   -1.674525348848019E1  -1.152300572761322E2  -1.291195215480672E1   1.510275810549345E2  -1.292587898120185E1   1.196846937562737E2  -1.770038830314840E1  -9.137668471774353E1  
 1.292787286063570E11   -1.783243399854732E1  -1.276866395744845E2  -1.264740776637892E1   1.042166582054950E2  -1.267350839388117E1   7.255490451390266E1  -1.909904429971475E1  -9.769959098893691E1  
 1.292909535452323E11   -1.887091266719586E1  -1.247983524827845E2  -1.259360176873601E1   5.590127777960801E1  -1.263240914063016E1   2.391787740321132E1  -1.890618885996365E1  -8.754064144264058E1  
 1.293031784841076E11   -1.764665749210255E1  -1.255316794443577E2  -1.270817700245570E1   8.746524988738807  -1.272138567349946E1  -2.275038750308821E1  -1.668421359943568E1  -9.212372473198404E1  
 1.293154034229829E11   -1.729852806890492E1  -1.429246116251808E2  -1.263590125593050E1  -3.762408096027609E1  -1.265751124423757E1  -6.948433337063646E1  -1.616785184705473E1  -1.086642723384427E2  
 1.293276283618582E11   -2.012233997926938E1  -1.602342000360434E2  -1.247342410826812E1  -8.533711901489815E1  -1.247825705724460E1  -1.170732512539897E2  -1.781143376488147E1  -1.213038538236133E2  
 1.293398533007335E11   -2.549859873785252E1  -1.469921605700930E2  -1.246922962560751E1  -1.336293739069196E2  -1.248211620404509E1  -1.652497038801464E2  -1.956302953594017E1  -1.179831366283309E2  
 1.293520782396088E11   -2.313805638600770E1  -1.147075886546195E2  -1.253747484439558E1   1.791604127992337E2  -1.255856910045366E1   1.474770883506732E2  -1.905335675788579E1  -1.149449542715527E2  
 1.293643031784841E11   -2.119977715874788E1  -1.247872985613284E2  -1.244138671336496E1   1.322302542355436E2  -1.245013037116875E1   1.005920005812036E2  -1.931860096531742E1  -1.240210511384870E2  
 1.293765281173594E11   -2.290388095947709E1  -1.251099853611113E2  -1.236355960738116E1   8.403021049163887E1  -1.239981640041226E1   5.221121132168001E1  -2.137601346430376E1  -1.227675721547532E2  
 1.293887530562347E11   -2.175990188836235E1  -1.046586160494418E2  -1.250346711512377E1   3.570642187182283E1  -1.252105411292568E1   4.345019865294254  -2.082052673022374E1  -1.095769728033092E2  
 1.294009779951100E11   -1.830610491455628E1  -1.101780100274463E2  -1.259532623951792E1  -1.040508695292566E1  -1.260420731506452E1  -4.201453083750803E1  -1.897041591557020E1  -1.167147221433856E2  
 1.294132029339853E11   -1.772847842447759E1  -1.283902960490737E2  -1.244483826980958E1  -5.764119720571324E1  -1.246917653208771E1  -8.895707780212229E1  -2.019465929172353E1  -1.324410799305747E2  
 1.294254278728606E11   -1.919192275689123E1  -1.357850291674193E2  -1.238352313551802E1  -1.057730933772187E2  -1.240266395505987E1  -1.371422830932352E2  -2.384906431910808E1  -1.236993306498006E2  
 1.294376528117360E11   -1.951864019036121E1  -1.293551885721910E2  -1.250920774822563E1  -1.533855914840696E2  -1.250771555209103E1   1.751156663190131E2  -2.129614920982748E1  -9.915157577574584E1  
 1.294498777506113E11   -1.794744682053627E1  -1.333409647227647E2  -1.253514331197130E1   1.597444174783703E2  -1.253805068691420E1   1.287586417195175E2  -1.850680044042618E1  -1.123172837876640E2  
 1.294621026894866E11   -1.846115251587824E1  -1.471560708789042E2  -1.239580286383049E1   1.127487207078331E2  -1.240362372153182E1   8.120611119022584E1  -1.918216464161098E1  -1.300809970111920E2  
 1.294743276283619E11   -2.105593779114563E1  -1.445727146474538E2  -1.238544437452738E1   6.462942228365286E1  -1.239219041970976E1   3.248432054059212E1  -2.176402799845144E1  -1.293497943730185E2  
 1.294865525672372E11   -1.977345826956613E1  -1.249022837446005E2  -1.257806785258692E1   1.672815646906070E1  -1.257868438117600E1  -1.517524355283821E1  -2.077065373708728E1  -1.155576755299655E2  
 1.294987775061125E11   -1.674657900763415E1  -1.339091721030774E2  -1.263242704681094E1  -2.918735923683579E1  -1.262861376136476E1  -6.096850172774730E1  -1.891286030021231E1  -1.274722442258131E2  
 1.295110024449878E11   -1.660037235125531E1  -1.523990605860230E2  -1.244940744907322E1  -7.607227816026368E1  -1.248165384655926E1  -1.079515584445579E2  -2.071490790646869E1  -1.471772202627743E2  
 1.295232273838631E11   -1.836812765177402E1  -1.612674886557054E2  -1.240074421346863E1  -1.239555136624614E2  -1.239536143147770E1  -1.561842359285774E2  -2.616068571750995E1  -1.335355749527430E2  
 1.295354523227384E11   -1.928422591201007E1  -1.552476083418712E2  -1.249384664838538E1  -1.715099640059232E2  -1.249289265668196E1   1.562799699041096E2  -2.216526986407902E1  -9.931386328379918E1  
 1.295476772616137E11   -1.829053295424056E1  -1.593073712815910E2  -1.244017782573967E1   1.419375226094688E2  -1.244672695975372E1   1.098250949395163E2  -1.914751563262820E1  -1.148356116245401E2  
 1.295599022004890E11   -1.962051129000605E1  -1.712246305771672E2  -1.230959524166802E1   9.439485260466725E1  -1.232479366078981E1   6.162777487549893E1  -2.002111117941317E1  -1.292763071505103E2  
 1.295721271393643E11   -2.263909479673754E1  -1.607004952759474E2  -1.234842434863313E1   4.603749696669500E1  -1.236486381878525E1   1.341709858257592E1  -2.137307727063709E1  -1.213066536024549E2  
 1.295843520782396E11   -2.030499731426505E1  -1.399978216336639E2  -1.248577122022345E1  -7.616675952064796E-1  -1.250856915449970E1  -3.382102917332598E1  -1.893049641157752E1  -1.168751612354995E2  
 1.295965770171149E11   -1.789443422427452E1  -1.516838253408446E2  -1.242243612382183E1  -4.727133760196076E1  -1.243882364153299E1  -8.050771818860332E1  -1.775496168630347E1  -1.330160228299681E2  
 1.296088019559902E11   -1.885221345670345E1  -1.644340272891412E2  -1.229030274814840E1  -9.459570708090850E1  -1.230430082152718E1  -1.283019143176828E2  -1.947679340635177E1  -1.460770933662134E2  
 1.296210268948655E11   -2.029026850659389E1  -1.545245547288407E2  -1.233836134487885E1  -1.428373307147535E2  -1.235750749680556E1  -1.770656313877707E2  -2.130932244720376E1  -1.356530232249708E2  
 1.296332518337408E11   -1.762145783200949E1  -1.484372523951446E2  -1.245950759197611E1   1.700107111849947E2  -1.249235989849247E1   1.359592855461941E2  -1.904323911315013E1  -1.294631099761398E2  
 1.296454767726161E11   -1.612963349941743E1  -1.642206731116405E2  -1.242864405007430E1   1.230366519977060E2  -1.245155844458811E1   8.923199669552572E1  -1.797874697899464E1  -1.452878600978604E2  
 1.296577017114914E11   -1.730366335850797E1  -1.782425211967967E2  -1.235488733996509E1   7.596133230370133E1  -1.239720470425215E1   4.127954587888207E1  -2.019142445007141E1  -1.564185755285789E2  
 1.296699266503667E11   -1.911207777000423E1  -1.734988501987716E2  -1.245019763904212E1   2.833185498598790E1  -1.246712829244558E1  -6.468611072844756  -2.150282771826589E1  -1.375823203939199E2  
 1.296821515892421E11   -1.730412206951617E1  -1.662828986610444E2  -1.250843441036255E1  -1.854378598110343E1  -1.253427094747008E1  -5.343051546352024E1  -1.809922537962250E1  -1.370322079642519E2  
 1.296943765281174E11   -1.592409403235502E1   1.790087075124653E2  -1.246852125909458E1  -6.533977246893089E1  -1.248870690220787E1  -1.006550271214600E2  -1.718469221254713E1  -1.573666288556635E2  
 1.297066014669927E11   -1.724606051458065E1   1.630321132866050E2  -1.242821101689391E1  -1.127876674616288E2  -1.246622884402366E1  -1.483164071580673E2  -1.949431518711747E1  -1.735718836191988E2  
 1.297188264058680E11   -2.002432048022809E1   1.673947129702875E2  -1.249118653267642E1  -1.596830635971157E2  -1.252942998562023E1   1.639626607595981E2  -2.227578778822531E1  -1.577442401910431E2  
 1.297310513447433E11   -1.831010802869320E1  -1.795534263101011E2  -1.247994187792166E1   1.535897517605119E2  -1.252162695468795E1   1.174543655587275E2  -1.899094036073631E1  -1.509760483677054E2  
 1.297432762836186E11   -1.669357884148211E1   1.657082350440320E2  -1.240196059176399E1   1.064990404429217E2  -1.244266529918704E1   7.010572037658690E1  -1.783657575521543E1  -1.712521556748283E2  
 1.297555012224939E11   -1.821191116920469E1   1.470794222463466E2  -1.238359118866229E1   5.913994977042771E1  -1.241032984396301E1   2.225897763241188E1  -2.013618721324431E1   1.693899042492097E2  
 1.297677261613692E11   -2.233798159311089E1   1.499316678609397E2  -1.239235907692480E1   1.208469285979499E1  -1.242985911669021E1  -2.483521157791402E1  -2.414246242757970E1  -1.794353671015356E2  
 1.297799511002445E11   -2.116514608806979E1   1.751356275785696E2  -1.228642472905042E1  -3.511965489438079E1  -1.232115359478912E1  -7.196239912060091E1  -2.181575107922390E1  -1.658949416756658E2  
 1.297921760391198E11   -1.937461827470084E1   1.661765666753142E2  -1.220355298586870E1  -8.307195867366595E1  -1.221684820937793E1  -1.199194284105921E2  -2.129844319518594E1   1.775617721216582E2  
 1.298044009779951E11   -2.089741243200168E1   1.585862130689822E2  -1.223534345572485E1  -1.311915239180611E2  -1.226823974309619E1  -1.679206287517432E2  -2.542047855843311E1   1.700099530898607E2  
 1.298166259168704E11   -2.161701604793897E1   1.786784928725364E2  -1.234746373711223E1  -1.782090944687197E2  -1.238403677223653E1   1.450063977124898E2  -2.525910996551422E1  -1.476114609832856E2  
 1.298288508557457E11   -1.803962619276247E1   1.790520611796822E2  -1.230487711563213E1   1.348753025256184E2  -1.234564345019777E1   9.817651351334241E1  -2.052992405744292E1  -1.579654996009882E2  
 1.298410757946210E11   -1.701980056603354E1   1.609132913036871E2  -1.223785457219068E1   8.751430652438960E1  -1.225793090718642E1   5.072283384118072E1  -2.045190051032067E1   1.757997790106745E2  
 1.298533007334963E11   -1.866455251871737E1   1.492382337591628E2  -1.221621451793339E1   3.984125658526941E1  -1.222651548308660E1   3.123068727604050  -2.492647155818795E1   1.614155957326663E2  
 1.298655256723716E11   -1.991229172620863E1   1.591368067767419E2  -1.217810808417245E1  -7.675264156748851  -1.219588426278579E1  -4.376912275634943E1  -2.664450680554786E1  -1.557409540630809E2  
 1.298777506112470E11   -1.806125222744075E1   1.601252629432422E2  -1.210347020305235E1  -5.556935102084281E1  -1.212750715934402E1  -9.171820357293935E1  -2.237052783478692E1  -1.609508837472541E2  
 1.298899755501223E11   -1.782872600933664E1   1.480528653173989E2  -1.212403504477973E1  -1.036578098030605E2  -1.214046278747063E1  -1.396326337611976E2  -2.317233726856498E1   1.793623191703147E2  
 1.299022004889976E11   -1.940485900916267E1   1.465460888727962E2  -1.221309307431507E1  -1.516139325443408E2  -1.224535674938327E1   1.724282547852923E2  -2.761652705836825E1  -1.617698829454027E2  
 1.299144254278729E11   -1.828197065012532E1   1.584140533989541E2  -1.230547167149162E1   1.613214386094636E2  -1.232456810209173E1   1.255822316302009E2  -2.176951192363026E1  -1.377790784768608E2  
 1.299266503667482E11   -1.589802752427110E1   1.479306989753727E2  -1.233574104986075E1   1.139084600108184E2  -1.234357955793050E1   7.863775281430694E1  -1.853985695983827E1  -1.603307511900653E2  
 1.299388753056235E11   -1.587223642097850E1   1.279669831372279E2  -1.236260064653004E1   6.699428137937684E1  -1.236698108522253E1   3.159355585771438E1  -1.913553200219835E1   1.745824397084701E2  
 1.299511002444988E11   -1.819594990823980E1   1.153391969803155E2  -1.235193423164094E1   1.968343022227094E1  -1.236211924516490E1  -1.556792531454364E1  -2.316275241325914E1   1.690776088229777E2  
 1.299633251833741E11   -1.971022947225865E1   1.252758276620273E2  -1.228796912258586E1  -2.764034610936878E1  -1.229886612825147E1  -6.270136234042171E1  -2.237327404053071E1  -1.634078312681809E2  
 1.299755501222494E11   -1.807608585582759E1   1.208514867019854E2  -1.227763048002220E1  -7.576892393647292E1  -1.228854653597803E1  -1.102222810144267E2  -1.922665669576990E1  -1.727277717407949E2  
 1.299877750611247E11   -1.883658022546728E1   9.925965198896115E1  -1.237842209243744E1  -1.233357039840852E2  -1.239743047298980E1  -1.577474194314750E2  -1.931928986515630E1   1.692221361378697E2  
 1.300000000000000E11   -2.490064859504265E1   8.345807786698300E1  -1.242270715782234E1  -1.702545033465994E2  -1.246568223383422E1   1.559286749237239E2  -2.126224462079468E1   1.680222110586773E2  
 1.300122249388753E11   -2.676199084004974E1   1.571413853341303E2  -1.233618928095168E1   1.428045939424151E2  -1.235994897465547E1   1.090066696757357E2  -1.984848304024292E1   1.745825901911391E2  
 1.300244498777506E11   -2.059717918472368E1   1.467520768609439E2  -1.229942298273919E1   9.483259949179148E1  -1.231361751334734E1   6.156184673801823E1  -1.854413389764679E1   1.597733469692385E2  
 1.300366748166259E11   -2.094450341949929E1   1.252216280663032E2  -1.235878203108604E1   4.712250663246206E1  -1.239147774138584E1   1.383865752996481E1  -2.010570393878912E1   1.423189556632914E2  
 1.300488997555012E11   -2.473986610968256E1   1.383123606731760E2  -1.239299367347865E1   2.576277065285474E-1  -1.241630076952806E1  -3.280158163503788E1  -2.364203341769254E1   1.508736591603198E2  
 1.300611246943765E11   -2.006183310580396E1   1.598986394353866E2  -1.233397562079143E1  -4.734922610075096E1  -1.235177171350999E1  -8.001786334511930E1  -2.077724305926897E1   1.654689727998477E2  
 1.300733496332518E11   -1.698821635834515E1   1.415586410024029E2  -1.237932387935405E1  -9.505851829598217E1  -1.239601111949920E1  -1.270824650866130E2  -1.895271839752114E1   1.465394390658083E2  
 1.300855745721271E11   -1.733180015318378E1   1.202697350312478E2  -1.244101772682218E1  -1.416859334866402E2  -1.245090808723425E1  -1.740163895877928E2  -2.103974495463883E1   1.250161782035304E2  
 1.300977995110024E11   -1.985438471773311E1   1.163066151439489E2  -1.231218638075949E1   1.714202912674669E2  -1.232263296584144E1   1.393537164090399E2  -2.585184833756591E1   1.363551615366198E2  
 1.301100244498778E11   -1.908424386352218E1   1.270936687899617E2  -1.215532988786000E1   1.234941300200113E2  -1.219423674568733E1   9.146029245856890E1  -2.276643257004195E1   1.605368871788821E2  
 1.301222493887531E11   -1.754896183068671E1   1.159976410453212E2  -1.225219093146640E1   7.514858096208434E1  -1.227605387375217E1   4.379131818735824E1  -2.031681569161958E1   1.453609746530553E2  
 1.301344743276284E11   -1.899626703824301E1   9.808341751333251E1  -1.232562827713811E1   2.825269821893999E1  -1.234577695797029E1  -2.895832949017340  -2.183441304314653E1   1.278439511608622E2  
 1.301466992665037E11   -2.309664767499693E1   1.094267092549580E2  -1.220041010687915E1  -1.845639406990412E1  -1.223207028834600E1  -4.984418355816134E1  -2.393359452783873E1   1.409580919798382E2  
 1.301589242053790E11   -1.988589581045227E1   1.332357509111867E2  -1.212268332194982E1  -6.646017379178419E1  -1.215244700627301E1  -9.768059397271937E1  -2.084711244692355E1   1.453974982899046E2  
 1.301711491442543E11   -1.716265594461779E1   1.195360524279912E2  -1.219586285031111E1  -1.141831678112042E2  -1.222895844525455E1  -1.454782465654544E2  -1.934846561565552E1   1.235452338165065E2  
 1.301833740831296E11   -1.754004225434565E1   1.018288023587763E2  -1.220502886073151E1  -1.610492536502895E2  -1.222896106335638E1   1.681865191885264E2  -2.142699099002362E1   9.733037702105590E1  
 1.301955990220049E11   -1.929388094097379E1   9.918189016346496E1  -1.203198112364004E1   1.520068901145342E2  -1.204606587656739E1   1.208068568713902E2  -2.810325597704943E1   9.528514675574486E1  
 1.302078239608802E11   -1.891634549226461E1   1.033570364699237E2  -1.195392444216526E1   1.028982791802707E2  -1.197566094601175E1   7.257643184058445E1  -2.736481989955764E1   1.435664072126278E2  
 1.302200488997555E11   -1.868590730652599E1   9.342729864290836E1  -1.205700127756355E1   5.482448566377133E1  -1.207569667234636E1   2.466243418130640E1  -2.411057980741835E1   1.346611372327625E2  
 1.302322738386308E11   -2.143059731747415E1   8.893182680158276E1  -1.212294941516544E1   7.869397096232276  -1.214942242571961E1  -2.297524130721073E1  -2.604643348904735E1   1.309145048765541E2  
 1.302444987775061E11   -2.165612935386341E1   1.197866050761168E2  -1.210484434744995E1  -3.945294054718085E1  -1.213219641288628E1  -7.069015795388859E1  -2.398669558801879E1   1.556674634706534E2  
 1.302567237163814E11   -1.724006542389939E1   1.183471787124685E2  -1.220756321262173E1  -8.727547383173931E1  -1.224067101125108E1  -1.184949389358678E2  -1.973264995809056E1   1.433769325513590E2  
 1.302689486552567E11   -1.570959395111516E1   9.852283460607846E1  -1.237687433950014E1  -1.342208860786708E2  -1.240973775437174E1  -1.650186235898725E2  -1.870473025492455E1   1.175343463570508E2  
 1.302811735941320E11   -1.697472308061795E1   8.241371311501997E1  -1.229367912898181E1  -1.798870653225002E2  -1.233918302979234E1   1.483098749265898E2  -2.085414853129509E1   9.864984073242991E1  
 1.302933985330073E11   -1.860167715317957E1   8.629219349181508E1  -1.212779348507156E1   1.321899726747771E2  -1.215448099933625E1   1.006151474822638E2  -2.330941750886556E1   1.040516289383090E2  
 1.303056234718826E11   -1.714071964839745E1   8.940117417872109E1  -1.224827883353979E1   8.379849459529054E1  -1.227135228841401E1   5.191075104879698E1  -2.156048434712010E1   1.097466156883776E2  
 1.303178484107580E11   -1.629152553606243E1   7.441259250680717E1  -1.247347058150663E1   3.740334148172612E1  -1.251869953505023E1   5.174450255846693  -2.080562360046445E1   9.057901785314350E1  
 1.303300733496333E11   -1.831994323199462E1   6.064564564475486E1  -1.235593832596977E1  -8.213164099913053  -1.240002229311191E1  -4.028465262250086E1  -2.375851202397503E1   7.642770090177943E1  
 1.303422982885086E11   -2.068978158935397E1   7.183049999961327E1  -1.212171070894642E1  -5.590073257279834E1  -1.216619880513559E1  -8.853218530278211E1  -2.611846506754935E1   9.521848490085856E1  
 1.303545232273839E11   -1.866837718448456E1   7.997639409225035E1  -1.221692422165796E1  -1.042984825397380E2  -1.225561114397682E1  -1.369970449593546E2  -2.291122448531260E1   1.014469551748229E2  
 1.303667481662592E11   -1.782002972742929E1   6.505740860641160E1  -1.239237907094146E1  -1.504928033623068E2  -1.243859844262592E1   1.764451644480175E2  -2.194943183174205E1   7.797654184746476E1  
 1.303789731051345E11   -2.031237819990386E1   5.570205650370136E1  -1.221531903695461E1   1.639581151332294E2  -1.226896109042994E1   1.303684596741442E2  -2.543116828714915E1   5.929508926388934E1  
 1.303911980440098E11   -2.165701714892555E1   7.495075249159046E1  -1.200077742218898E1   1.157126243019940E2  -1.207083718159997E1   8.219954963809460E1  -2.952305204967792E1   8.640548196936707E1  
 1.304034229828851E11   -1.889419474008536E1   7.913770712080626E1  -1.208271114786050E1   6.739268097929998E1  -1.214393344033203E1   3.370371004935575E1  -2.495724431794403E1   9.666312533037346E1  
 1.304156479217604E11   -1.814838584947515E1   6.514877215150773E1  -1.216294527281734E1   2.110412286353930E1  -1.221059502496671E1  -1.311436556570087E1  -2.408925814070268E1   7.163509789491960E1  
 1.304278728606357E11   -1.962152633786049E1   6.006867115037344E1  -1.198408171583404E1  -2.582461975755775E1  -1.204303041077820E1  -6.021014319882375E1  -2.807936725876199E1   5.103719526381162E1  
 1.304400977995110E11   -1.952928890697076E1   6.746465865112673E1  -1.192192777435714E1  -7.456082913856876E1  -1.197875550906243E1  -1.089228994782394E2  -3.416550962434116E1   9.184924811403310E1  
 1.304523227383863E11   -1.808423037613681E1   6.105082661471734E1  -1.210401138277898E1  -1.221430364335963E2  -1.217098544059573E1  -1.569370873755244E2  -2.760329203065768E1   1.044005101162563E2  
 1.304645476772616E11   -1.911232809879362E1   4.625738218808927E1  -1.217816999507749E1  -1.682860995652777E2  -1.224347636749134E1   1.566014391441089E2  -2.814748346647676E1   8.023388344503857E1  
 1.304767726161369E11   -2.249777526508505E1   5.339038148333554E1  -1.198535887199657E1   1.448490989420183E2  -1.203136789478314E1   1.095127761517583E2  -3.423771671706113E1   1.032256050133677E2  
 1.304889975550122E11   -2.060909120645409E1   7.634817049269894E1  -1.194925304698614E1   9.625197674542501E1  -1.201902312690290E1   6.104464608369915E1  -2.713977249463767E1   1.374683511856220E2  
 1.305012224938875E11   -1.801143673809199E1   6.760455992240112E1  -1.210013324639596E1   4.890549768312612E1  -1.217185426984695E1   1.303818020850196E1  -2.366872781429084E1   1.157958574779159E2  
 1.305134474327628E11   -1.853613504178513E1   5.565015235947788E1  -1.205862720700398E1   2.705982245534601  -1.212149514114159E1  -3.356148516656486E1  -2.465259928686227E1   9.875446458281621E1  
 1.305256723716381E11   -1.957267104652957E1   6.366165388069614E1  -1.194916666056158E1  -4.559657084926528E1  -1.201342430458833E1  -8.211892351727730E1  -2.601469035464588E1   1.111659146876769E2  
 1.305378973105134E11   -1.702624133344422E1   6.975684414167283E1  -1.217470387405979E1  -9.407584503557210E1  -1.222339802700377E1  -1.306017065822526E2  -2.213051343764837E1   1.192867393496753E2  
 1.305501222493888E11   -1.503866587191589E1   5.454099671880127E1  -1.247704904038928E1  -1.400400034742979E2  -1.254141432329633E1  -1.767384792278970E2  -1.958780428537512E1   9.813080035337056E1  
 1.305623471882641E11   -1.554348809448551E1   3.715659964880695E1  -1.232765341948917E1   1.750673551436594E2  -1.239430420664758E1   1.383356249732157E2  -2.005509491554578E1   7.825884574503500E1  
 1.305745721271394E11   -1.730971577540100E1   3.192092942819101E1  -1.202688069222408E1   1.272756135590981E2  -1.208610724444098E1   9.053807114369806E1  -2.186221968599986E1   6.821919947490434E1  
 1.305867970660147E11   -1.740858992014379E1   3.801005761160541E1  -1.207305839650536E1   7.843784479748551E1  -1.212841444674432E1   4.181975017084529E1  -2.291789862288209E1   7.640129471042421E1  
 1.305990220048900E11   -1.620164650171336E1   3.043505993933768E1  -1.222306122593704E1   3.153058569285389E1  -1.231170073002356E1  -4.536434154869070  -2.146897871450038E1   7.411147678595266E1  
 1.306112469437653E11   -1.708104493321698E1   1.655645939566912E1  -1.207999488408403E1  -1.458182988981903E1  -1.213216084815724E1  -5.105232830204950E1  -2.123949818303513E1   6.630648201401425E1  
 1.306234718826406E11   -1.969452325570714E1   1.530938322509627E1  -1.192378208123296E1  -6.303506851498919E1  -1.197854570908302E1  -9.945611970803384E1  -2.152185385603614E1   5.966649396157328E1  
 1.306356968215159E11   -1.968383552253846E1   3.236719760446026E1  -1.206579912841671E1  -1.114117506077623E2  -1.212196492500835E1  -1.475786107647093E2  -2.149656486388421E1   5.639963042157278E1  
 1.306479217603912E11   -1.774868783235860E1   2.793987452300401E1  -1.219854253958137E1  -1.575090123892895E2  -1.224420867209217E1   1.663976016405812E2  -2.153579074994006E1   4.617028868299832E1  
 1.306601466992665E11   -1.811520996505233E1   1.869776891972736E1  -1.195580463710392E1   1.554884511101064E2  -1.202104217223191E1   1.197042248816070E2  -2.278197533807648E1   3.908520713980667E1  
 1.306723716381418E11   -1.887943983822309E1   2.003344966554043E1  -1.188156292826786E1   1.065311018450621E2  -1.193172904239598E1   7.132798110220952E1  -2.493551066004128E1   3.782496067676615E1  
 1.306845965770171E11   -1.787392132593600E1   2.128231378056754E1  -1.209490118054309E1   5.825765566655183E1  -1.213976286960801E1   2.312732758332605E1  -2.502617888674556E1   5.395895788577725E1  
 1.306968215158924E11   -1.751194362237510E1   8.840430868407779  -1.219985572982808E1   1.244410784549259E1  -1.223744804095710E1  -2.247055912995112E1  -2.372952402436274E1   4.966215740100583E1  
 1.307090464547677E11   -1.962912878160006E1   1.570421986073009  -1.194679872975654E1  -3.464332257616494E1  -1.197993668244381E1  -6.909045833510311E1  -2.443200265058659E1   4.646147251268179E1  
 1.307212713936430E11   -2.122916175298014E1   1.664782293367016E1  -1.189179057173271E1  -8.303913879680626E1  -1.190782104637115E1  -1.182089989524064E2  -2.504107069099860E1   5.393384246506952E1  
 1.307334963325183E11   -1.868733946819767E1   2.590552411815902E1  -1.208818066094529E1  -1.311994230016905E2  -1.212826175668260E1  -1.655847036119634E2  -2.285871295588551E1   5.966794578108240E1  
 1.307457212713937E11   -1.736030146730454E1   1.486046810363483E1  -1.208663546076648E1  -1.772445710613364E2  -1.212180897650083E1   1.487132314738031E2  -2.139911467566260E1   4.864746895848518E1  
 1.307579462102690E11   -1.767185943004013E1   7.022955270392462  -1.186529724817874E1   1.352701732930386E2  -1.190901667817821E1   1.014083753643771E2  -2.140696927955063E1   3.518216803924412E1  
 1.307701711491443E11   -1.794883295318733E1   6.705849166095213  -1.188356298159762E1   8.675571435669708E1  -1.192837442164616E1   5.255787280294342E1  -2.329565877986136E1   2.606554927357083E1  
 1.307823960880196E11   -1.684843248410119E1   3.530442855667479  -1.211423017852769E1   3.921263666467489E1  -1.215865004229804E1   5.332907818008568  -2.439617131936988E1   3.483309987762954E1  
 1.307946210268949E11   -1.679334712669608E1  -9.510493840760823  -1.204802659715556E1  -6.320187402832037  -1.210597039915541E1  -4.010323737858083E1  -2.412291111753185E1   3.884811831512080E1  
 1.308068459657702E11   -1.824477113739729E1  -1.722244156963892E1  -1.182405756072063E1  -5.418143200411598E1  -1.187049623677947E1  -8.778210860454217E1  -2.342477031786275E1   3.850915614567815E1  
 1.308190709046455E11   -1.954838390816295E1  -1.294591424353043E1  -1.182209958959551E1  -1.033008756096270E2  -1.188384289828930E1  -1.364933800436138E2  -2.380676680611057E1   3.729454761225861E1  
 1.308312958435208E11   -1.858087260233439E1  -1.106674835514647E1  -1.202636685459368E1  -1.502859201689963E2  -1.206896865304522E1   1.763993189390218E2  -2.341454323265936E1   4.233420606473199E1  
 1.308435207823961E11   -1.860317542785296E1  -2.247616120372140E1  -1.193033174600506E1   1.630391982564156E2  -1.197240949879055E1   1.300334275671467E2  -2.226738883721536E1   4.544453816713585E1  
 1.308557457212714E11   -2.059800424481154E1  -2.993635339531603E1  -1.181084385004214E1   1.145879402254801E2  -1.186260256816762E1   8.195852921181781E1  -2.063282866166598E1   4.139402680440974E1  
 1.308679706601467E11   -2.315114120487422E1  -1.453333638045814E1  -1.196188368186257E1   6.625516769954282E1  -1.201177939677285E1   3.372540330746609E1  -1.973372155754747E1   3.283781631490366E1  
 1.308801955990220E11   -2.064041115276892E1  -2.222960429702092  -1.212610418828721E1   2.018317461622977E1  -1.217188673507101E1  -1.241677456987427E1  -1.935331385384242E1   2.283456219468045E1  
 1.308924205378973E11   -1.953516266256851E1  -8.275269342219554  -1.193598116042076E1  -2.645326217332032E1  -1.197472442129337E1  -5.883016324894098E1  -1.947420696971299E1   1.638373408344243E1  
 1.309046454767726E11   -1.919168688972670E1  -1.299659826596523E1  -1.183844650150957E1  -7.477581647525052E1  -1.189823591984084E1  -1.072644606753695E2  -1.945858875132845E1   6.825724706537399  
 1.309168704156479E11   -1.882832251217355E1  -1.482557905944622E1  -1.202523139884164E1  -1.229554843767639E2  -1.208282758642032E1  -1.554518894368455E2  -2.031057530239467E1  -1.084410740425001  
 1.309290953545232E11   -1.799174695069683E1  -2.501219088891000E1  -1.219177481747198E1  -1.686588255007419E2  -1.225640763429428E1   1.591891639008252E2  -2.103593851191013E1  -5.975982683064256  
 1.309413202933985E11   -1.926778865935605E1  -3.680792972819585E1  -1.192268717478254E1   1.452982464304583E2  -1.196507141999530E1   1.131301140527787E2  -2.234319988429208E1  -5.881495771388439  
 1.309535452322738E11   -2.125686142530769E1  -3.654974289688155E1  -1.173069290851191E1   9.673169075253543E1  -1.178339218672392E1   6.466377951247581E1  -2.215102675064424E1  -4.503165286263456  
 1.309657701711491E11   -2.173332378056426E1  -2.583456330735158E1  -1.183152999622707E1   4.843981412190900E1  -1.188641909106102E1   1.651290627707971E1  -2.227742719131105E1  -8.375035617414010  
 1.309779951100244E11   -2.079725902065259E1  -2.642455242380784E1  -1.185704263042546E1   1.633749511109641  -1.188936306169017E1  -2.992679491267994E1  -2.288108219755652E1  -1.158308673922053E1  
 1.309902200488998E11   -2.127834181496872E1  -2.739526414619228E1  -1.168278233757680E1  -4.609669262731181E1  -1.171605211441727E1  -7.784427797198376E1  -2.310288283928618E1  -9.167147197250456  
 1.310024449877751E11   -2.137301204261935E1  -2.312909500546053E1  -1.170597236587133E1  -9.499792555314028E1  -1.174206238746530E1  -1.267825504046975E2  -2.288723460194204E1  -1.416407527983320E1  
 1.310146699266504E11   -2.005713632092736E1  -2.060126573406597E1  -1.196754785491834E1  -1.425814970304187E2  -1.202574174527452E1  -1.745820945479709E2  -2.345684121956206E1  -1.621146049707704E1  
 1.310268948655257E11   -1.957774075124761E1  -3.166553730513525E1  -1.202027096530452E1   1.719408242965989E2  -1.207240454758273E1   1.400226356692567E2  -2.388587860669635E1  -2.219958400164181E1  
 1.310391198044010E11   -2.104828457090600E1  -3.256951533326100E1  -1.179918426200863E1   1.245685832093049E2  -1.184946643035306E1   9.256303590790047E1  -2.503465345251227E1  -2.410035562000422E1  
 1.310513447432763E11   -2.056306089656683E1  -2.222156312237405E1  -1.183835957951671E1   7.569406863708697E1  -1.189626398080851E1   4.359232873158855E1  -2.644174158603384E1  -2.806524822910781E1  
 1.310635696821516E11   -1.827270804071972E1  -2.603853497772690E1  -1.210116030359253E1   2.876727765944577E1  -1.212810007562446E1  -3.173355576393229  -2.907793559770486E1  -2.084117680421680E1  
 1.310757946210269E11   -1.804684981227189E1  -4.254698745358242E1  -1.199134472974138E1  -1.690190255965992E1  -1.202636960993636E1  -4.886587994039126E1  -3.162307055340682E1   7.949326991039448  
 1.310880195599022E11   -1.976781982594478E1  -5.108417599764411E1  -1.179284790656982E1  -6.484884166750800E1  -1.183815447581580E1  -9.727403447908988E1  -2.641310146158263E1   3.238099453283486E1  
 1.311002444987775E11   -2.149580470080724E1  -4.245656309571041E1  -1.193143472694857E1  -1.137424714754680E2  -1.195844960473355E1  -1.459217546870495E2  -2.351255018938345E1   2.164327079826929E1  
 1.311124694376528E11   -1.953105819853897E1  -3.568447951838278E1  -1.220614737394979E1  -1.595592091053138E2  -1.223769062321650E1   1.680597359650241E2  -2.258432836191541E1   1.013418253478498E1  
 1.311246943765281E11   -1.898278203242240E1  -4.796784140050876E1  -1.199520329002956E1   1.547935297068220E2  -1.202675414591280E1   1.224066579794139E2  -2.320154249348292E1   9.237674714492659  
 1.311369193154034E11   -1.997460584178504E1  -5.427914848913424E1  -1.178223364473977E1   1.066427692441060E2  -1.182223880066897E1   7.394291994948154E1  -2.152567940345981E1   1.116383350768676E1  
 1.311491442542787E11   -2.125144333217616E1  -5.103413256091197E1  -1.188385520781403E1   5.806085050399094E1  -1.192271502998925E1   2.539845534121123E1  -2.037380895729244E1   1.301889638161539  
 1.311613691931540E11   -2.033590213097282E1  -4.641890840870029E1  -1.206585999972508E1   1.189737637791655E1  -1.209561465914325E1  -2.110022447038092E1  -2.021657460867559E1  -1.014860855829457E1  
 1.311735941320293E11   -2.046545006559710E1  -5.108260553254766E1  -1.186833761703391E1  -3.418920060034530E1  -1.190301019168699E1  -6.713952733058325E1  -2.110584976139553E1  -1.559026661241984E1  
 1.311858190709047E11   -2.039831445076750E1  -4.705064711753571E1  -1.171529359412040E1  -8.276530413825550E1  -1.175266839008529E1  -1.156289275792267E2  -2.090344194520579E1  -1.834591057440098E1  
 1.311980440097800E11   -1.919027370592573E1  -4.605897296016893E1  -1.188561067075145E1  -1.311862050687893E2  -1.192136543319677E1  -1.637518947713132E2  -2.122581357482936E1  -2.616827227325403E1  
 1.312102689486553E11   -1.798628173482539E1  -5.703695620891000E1  -1.198098134508520E1  -1.766129021344395E2  -1.200772793766075E1   1.503549273333326E2  -2.274133278018581E1  -3.217798344485342E1  
 1.312224938875306E11   -1.875152234951094E1  -6.903779422643065E1  -1.173321213409906E1   1.363248753313989E2  -1.176381811657344E1   1.034066570622211E2  -2.452601136892151E1  -1.787828332436494E1  
 1.312347188264059E11   -1.996320624830751E1  -7.345476926622047E1  -1.164399376030179E1   8.776016710235021E1  -1.166411000216781E1   5.497340683036229E1  -2.188945407619174E1  -1.028471553102538E1  
 1.312469437652812E11   -2.096635843939623E1  -7.154058981288135E1  -1.178647085704157E1   3.997510718023822E1  -1.180329878683199E1   7.088568634051741  -2.049055381643065E1  -2.285301335735764E1  
 1.312591687041565E11   -2.086685297414568E1  -7.459173538702167E1  -1.177258112225744E1  -6.036704105893684  -1.180545744451527E1  -3.944466051437595E1  -2.131014991075745E1  -3.671431493244371E1  
 1.312713936430318E11   -2.270970804676180E1  -7.533559691973512E1  -1.155621286980529E1  -5.376483090255358E1  -1.158712339257400E1  -8.695669329697201E1  -2.328667061298118E1  -3.518054808977431E1  
 1.312836185819071E11   -2.323241081582066E1  -6.302835688906451E1  -1.153938235288429E1  -1.023624786565849E2  -1.155887583565808E1  -1.360425077260678E2  -2.291159777063362E1  -3.004332917695636E1  
 1.312958435207824E11   -2.165169459344510E1  -5.655707661972284E1  -1.171512879411481E1  -1.502241046184691E2  -1.174721507367338E1   1.763278923675429E2  -2.276038631408320E1  -3.365350867972393E1  
 1.313080684596577E11   -2.114543860404314E1  -6.473756505928144E1  -1.169106163512438E1   1.640097599905140E2  -1.171508070379776E1   1.298483337594507E2  -2.368319241010817E1  -3.791049911157244E1  
 1.313202933985330E11   -2.215539558086939E1  -6.058982622855648E1  -1.153378775253507E1   1.157790457182422E2  -1.156489498507065E1   8.194494617422426E1  -2.423655311313964E1  -2.915092687882218E1  
 1.313325183374083E11   -2.096601938097176E1  -5.040388020552764E1  -1.162298699490617E1   6.702348344728188E1  -1.163432076753505E1   3.323970030009131E1  -2.355533889001932E1  -3.066845408452244E1  
 1.313447432762836E11   -1.843977313078874E1  -5.283974702336197E1  -1.189387687903068E1   1.964366304191818E1  -1.191767207839382E1  -1.373097199229508E1  -2.438543064472269E1  -3.153017285800246E1  
 1.313569682151589E11   -1.732175867549281E1  -6.702511214009401E1  -1.185287586653957E1  -2.618468574133906E1  -1.187384604439962E1  -5.964872765160749E1  -2.573244948674595E1  -1.752371155497928E1  
 1.313691931540342E11   -1.735498518886213E1  -7.698755533977989E1  -1.169604443627156E1  -7.379534514926942E1  -1.173198862344921E1  -1.074463505822547E2  -2.186391368594821E1  -1.672654047049896  
 1.313814180929095E11   -1.759898466644967E1  -8.615285790583337E1  -1.179809313319021E1  -1.223132201653809E2  -1.181273932159360E1  -1.555085660574102E2  -1.884126816742587E1  -1.859944757278622E1  
 1.313936430317848E11   -1.782320576810931E1  -9.357684463852225E1  -1.202196766819428E1  -1.684994043064627E2  -1.205443138742874E1   1.576943009984896E2  -1.849513244271519E1  -4.012321371546664E1  
 1.314058679706601E11   -1.867928240904387E1  -1.080866285511568E2  -1.187162680816136E1   1.457705244758914E2  -1.189577643839993E1   1.119627560749474E2  -2.078203036954644E1  -5.843473378375570E1  
 1.314180929095355E11   -2.199670472582377E1  -1.144783834391271E2  -1.163743710320880E1   9.738125326931987E1  -1.166879877913582E1   6.414731770062221E1  -2.433242033485672E1  -5.062510368200451E1  
 1.314303178484108E11   -2.477975256898084E1  -9.270987679314331E1  -1.173906262631307E1   4.899882081148287E1  -1.175869613783740E1   1.524677325844154E1  -2.361858848678673E1  -3.596227463914714E1  
 1.314425427872861E11   -2.158150360453598E1  -7.669258622727185E1  -1.193842697668159E1   2.745138383796327  -1.196425365680082E1  -3.114868330296224E1  -2.292854177214144E1  -3.984893775802169E1  
 1.314547677261614E11   -2.032885283973977E1  -8.869596887635660E1  -1.173341847682825E1  -4.349412384243689E1  -1.176035051117715E1  -7.733245919401225E1  -2.479951782669686E1  -3.241719248069035E1  
 1.314669926650367E11   -2.084372672610701E1  -9.397883047142911E1  -1.160558023104460E1  -9.179574429056149E1  -1.165355522782792E1  -1.258093491366112E2  -2.198229914587289E1  -1.555424188532549E1  
 1.314792176039120E11   -2.131917529061515E1  -9.327437167159721E1  -1.175353125455975E1  -1.401641834297456E2  -1.177934786609935E1  -1.740933384170349E2  -1.945597318143221E1  -2.697327442657054E1  
 1.314914425427873E11   -2.059489665959061E1  -9.465516896278950E1  -1.181424612369713E1   1.738189748006134E2  -1.186821556546411E1   1.399055364746303E2  -1.935008252866656E1  -4.292967803824035E1  
 1.315036674816626E11   -2.166214776029036E1  -9.978287159609064E1  -1.161340885440579E1   1.267763359393569E2  -1.163928219876019E1   9.265250939973423E1  -2.098014101835397E1  -4.518482517354526E1  
 1.315158924205379E11   -2.199101286295210E1  -8.931763422777441E1  -1.156573079506967E1   7.782135609131142E1  -1.161442164996912E1   4.397839651525182E1  -2.010891116451446E1  -3.918473042441233E1  
 1.315281173594132E11   -2.018340512727370E1  -8.440165866000434E1  -1.183033857716464E1   3.010367887359363E1  -1.187451210773117E1  -4.145023767214257  -1.896981300966802E1  -4.813384263858157E1  
 1.315403422982885E11   -1.831826517922009E1  -9.549834225774460E1  -1.190707292442284E1  -1.497087202751678E1  -1.194822716555206E1  -4.921607467409819E1  -1.959786422799253E1  -6.272493218563142E1  
 1.315525672371638E11   -1.902119394938046E1  -1.082845077230340E2  -1.163606961762256E1  -6.187981329143127E1  -1.167628312457945E1  -9.598385474086598E1  -2.257198647112396E1  -6.060744947473174E1  
 1.315647921760391E11   -1.965488874136712E1  -1.082551435893136E2  -1.155124617240075E1  -1.106609494879030E2  -1.159700271026718E1  -1.446376490820937E2  -2.119982802708595E1  -4.459540731031004E1  
 1.315770171149144E11   -1.880689158156448E1  -1.088224733427640E2  -1.172907439566337E1  -1.581709914481056E2  -1.178196359918657E1   1.678553176370881E2  -1.938892135696065E1  -5.441587669545275E1  
 1.315892420537897E11   -1.798926961524348E1  -1.225816134591707E2  -1.171546153128125E1   1.557870997422210E2  -1.177100795708697E1   1.218460037143379E2  -2.032622358029371E1  -7.138718966907885E1  
 1.316014669926650E11   -1.956783108964976E1  -1.371255500988069E2  -1.147833639445398E1   1.078926200078677E2  -1.153613822805261E1   7.434015595803163E1  -2.428537426054960E1  -6.691500959307669E1  
 1.316136919315403E11   -2.197998857850254E1  -1.390726967223089E2  -1.146326979134754E1   5.949893377732509E1  -1.153577345450152E1   2.528686011338378E1  -2.260839211824702E1  -4.043258078152825E1  
 1.316259168704157E11   -2.312643389582567E1  -1.274964403691039E2  -1.163602643138583E1   1.182298929211685E1  -1.168358243027778E1  -2.157179345712068E1  -2.006596201358039E1  -4.834258599702729E1  
 1.316381418092910E11   -2.209188641987662E1  -1.287779697333794E2  -1.154937545367209E1  -3.439757010851685E1  -1.161206725999850E1  -6.826821665779941E1  -2.085000736309800E1  -5.966088843870235E1  
 1.316503667481663E11   -2.329210749958250E1  -1.322472044811170E2  -1.143808866362814E1  -8.290809465498228E1  -1.148999767950246E1  -1.162631180312531E2  -2.164670097182355E1  -4.726073130970286E1  
 1.316625916870416E11   -2.395177386474630E1  -1.267953864092533E2  -1.157329830740619E1  -1.313064404678237E2  -1.163328189529482E1  -1.647472654348837E2  -1.886511865324294E1  -4.522515621865939E1  
 1.316748166259169E11   -2.302769042368735E1  -1.186924110129640E2  -1.176949630158071E1  -1.775566848944113E2  -1.181965561279709E1   1.491447130397502E2  -1.746673020384858E1  -6.135857499611816E1  
 1.316870415647922E11   -2.224952451835638E1  -1.302619203235526E2  -1.156994680011280E1   1.361265157226224E2  -1.162468608638828E1   1.032119035321526E2  -1.893671022459727E1  -7.599890299859038E1  
 1.316992665036675E11   -2.413931401679551E1  -1.299066850075692E2  -1.141914333109851E1   8.771257345832531E1  -1.146726841961961E1   5.452631649397625E1  -2.077080904903924E1  -6.817511887716169E1  
 1.317114914425428E11   -2.334832413870630E1  -1.166346734623492E2  -1.157321053957123E1   3.906160417324165E1  -1.161094641813458E1   5.735691031666278  -1.917725505558486E1  -6.260368086905758E1  
 1.317237163814181E11   -2.064091224761360E1  -1.213772560111793E2  -1.180808506676678E1  -7.517946656297418  -1.187109912411355E1  -4.076139524102472E1  -1.799149802049952E1  -7.372019687215115E1  
 1.317359413202934E11   -2.028907558218306E1  -1.445454312755923E2  -1.165220234332536E1  -5.339096701713359E1  -1.170081337104784E1  -8.628690628037951E1  -1.943080130347851E1  -8.797329023357750E1  
 1.317481662591687E11   -2.326447399403724E1  -1.580710566827376E2  -1.147955242183003E1  -1.017420364758869E2  -1.151860723728251E1  -1.346898548112754E2  -2.194225272612013E1  -7.750866492287970E1  
 1.317603911980440E11   -2.625903577209545E1  -1.453369100449208E2  -1.162684741235312E1  -1.498086841584197E2  -1.168924243678885E1   1.771837941184185E2  -1.980760552592867E1  -6.572234322784375E1  
 1.317726161369193E11   -2.386371247484144E1  -1.334168549073767E2  -1.171120617833741E1   1.642756561219551E2  -1.177943165058943E1   1.316240926647079E2  -1.832035197587173E1  -7.889917039975016E1  
 1.317848410757946E11   -2.377371566181827E1  -1.548244549064849E2  -1.148904339115803E1   1.173060730772117E2  -1.154568711341989E1   8.442795938233604E1  -2.000989109464667E1  -9.050093871244980E1  
 1.317970660146699E11   -2.821327831723830E1  -1.622282883467660E2  -1.139677601441664E1   6.851981440508715E1  -1.145527639617368E1   3.618950673349702E1  -2.158985397558321E1  -7.770877321844756E1  
 1.318092909535452E11   -3.134728361620532E1  -1.238524947450408E2  -1.157591311008074E1   2.055060443346931E1  -1.163209930459982E1  -1.185076527453401E1  -1.946053399626824E1  -7.085381131108596E1  
 1.318215158924205E11   -2.704478984901977E1  -1.144382710129896E2  -1.157327757622176E1  -2.578016181403963E1  -1.163833381419629E1  -5.796965394656110E1  -1.849817748790046E1  -8.259043126550314E1  
 1.318337408312958E11   -2.871673301801762E1  -1.135135624563494E2  -1.138011890038493E1  -7.369737229990854E1  -1.144735481244728E1  -1.055096903464141E2  -1.957872860692819E1  -8.537272700748673E1  
 1.318459657701711E11   -2.549299192083791E1  -8.422340188318509E1  -1.143972852434435E1  -1.225712539318073E2  -1.150291970519149E1  -1.543653699841641E2  -1.886182122058083E1  -7.972815278259810E1  
 1.318581907090465E11   -2.063486440475836E1  -9.398070799755952E1  -1.172830271419740E1  -1.696534091110572E2  -1.179055613259402E1   1.584279078186556E2  -1.717491901297590E1  -8.712323698316766E1  
 1.318704156479218E11   -1.887265790240413E1  -1.197056050670635E2  -1.169978232537904E1   1.451489614031028E2  -1.174646301816913E1   1.133379344417796E2  -1.724074746173745E1  -1.052036398508735E2  
 1.318826405867971E11   -2.058833173412689E1  -1.388981809732649E2  -1.143230080963428E1   9.755178271104660E1  -1.150316143331300E1   6.584452385650430E1  -2.021163224425779E1  -1.136347917496418E2  
 1.318948655256724E11   -2.260510888078173E1  -1.331782927635838E2  -1.141375187963215E1   4.866178116729941E1  -1.147783523947755E1   1.740768526150002E1  -2.142959088778716E1  -9.364514232953867E1  
 1.319070904645477E11   -2.076598705502553E1  -1.268735408667837E2  -1.163079314675004E1   1.366028837863730  -1.169518897344606E1  -3.023614365413591E1  -1.876544415529036E1  -9.168110139809076E1  
 1.319193154034230E11   -1.947704635735469E1  -1.451231193146186E2  -1.157841228389460E1  -4.519880579393969E1  -1.165434248122711E1  -7.594024400452970E1  -1.819105528347000E1  -1.077448508901542E2  
 1.319315403422983E11   -2.201518675270541E1  -1.610456424870321E2  -1.139466348477065E1  -9.279932995552929E1  -1.145586347365185E1  -1.237334191821201E2  -2.052101101282915E1  -1.150019925047429E2  
 1.319437652811736E11   -2.500135793757831E1  -1.437646607959146E2  -1.142571583326550E1  -1.413307046448107E2  -1.150192857263004E1  -1.722124210482261E2  -2.105905936642706E1  -9.985044130323099E1  
 1.319559902200489E11   -2.171162379103823E1  -1.289680057918022E2  -1.163263841509536E1   1.716368802613383E2  -1.170055794061737E1   1.407904787540965E2  -1.884837801422961E1  -1.020635117127349E2  
 1.319682151589242E11   -1.990508539808854E1  -1.468752761360402E2  -1.151804769080181E1   1.255006746865593E2  -1.158590936549407E1   9.488016984659389E1  -1.915644917154733E1  -1.181397034541526E2  
 1.319804400977995E11   -2.166476391307284E1  -1.580824218062518E2  -1.137008606647466E1   7.732019492411862E1  -1.142677009325375E1   4.642843272232248E1  -2.194510789486064E1  -1.153884835658555E2  
 1.319926650366748E11   -2.245916247987132E1  -1.461895887669832E2  -1.148656265185235E1   2.917764747519636E1  -1.155341438869537E1  -1.820071538495084  -2.020235845145382E1  -9.747824597230721E1  
 1.320048899755501E11   -1.946598431817159E1  -1.465690901712054E2  -1.162179742968639E1  -1.723726900337899E1  -1.166994321875138E1  -4.819081078445549E1  -1.759748605310013E1  -1.112482836692448E2  
 1.320171149144254E11   -1.848263573055446E1  -1.697953559001165E2  -1.147382372942184E1  -6.401913282752194E1  -1.152039810324563E1  -9.460741366217150E1  -1.838107544761657E1  -1.343238817642809E2  
 1.320293398533007E11   -2.059366232367858E1   1.688992563284243E2  -1.135101499427936E1  -1.119787696497493E2  -1.139966131382123E1  -1.430079766239607E2  -2.285789831933407E1  -1.425196011233931E2  
 1.320415647921760E11   -2.507258506693843E1   1.660987284421440E2  -1.144818925827500E1  -1.601697144718998E2  -1.151291110775317E1   1.692173409341876E2  -2.407897935305575E1  -1.063655626532062E2  
 1.320537897310514E11   -2.558317605064440E1  -1.687997034673096E2  -1.151928997390349E1   1.533731575653883E2  -1.158123424124919E1   1.224722892969959E2  -2.025157873489939E1  -1.085405116934014E2  
 1.320660146699267E11   -2.499240990081638E1   1.793445391872020E2  -1.135097086506164E1   1.060769200293292E2  -1.141279446050045E1   7.510370108387049E1  -2.048167022960380E1  -1.235402743539007E2  
 1.320782396088020E11   -3.085010450595346E1  -1.749204294284945E2  -1.132187219032040E1   5.752151177645882E1  -1.138166507065023E1   2.653047086294141E1  -2.200474414134329E1  -1.190933334683647E2  
 1.320904645476773E11   -2.643119822969436E1  -1.153488306416268E2  -1.154083915634923E1   9.830952082156783  -1.160604234362388E1  -2.095053339239257E1  -2.011806334789978E1  -1.135568986343633E2  
 1.321026894865526E11   -2.045906313757596E1  -1.335069231563789E2  -1.156656323674740E1  -3.612266131172853E1  -1.163298135747437E1  -6.702731522220203E1  -1.908513481315148E1  -1.323673315161180E2  
 1.321149144254279E11   -1.958504818299550E1  -1.597865429005683E2  -1.142154242057662E1  -8.329020833544189E1  -1.148257656067741E1  -1.143966376321428E2  -2.252561825696962E1  -1.522550767846581E2  
 1.321271393643032E11   -2.124143346376741E1  -1.748823629218586E2  -1.143545874668031E1  -1.314606618644009E2  -1.150596309242728E1  -1.628964739144647E2  -2.799119164999010E1  -1.079151593342239E2  
 1.321393643031785E11   -2.295234651168506E1  -1.704637169150708E2  -1.157027156889328E1  -1.780760082579325E2  -1.160881702408289E1   1.502965838528875E2  -2.054215186490706E1  -9.476017890800038E1  
 1.321515892420538E11   -2.162964524823332E1  -1.718288855500561E2  -1.141947105905110E1   1.352420096941373E2  -1.146996257602356E1   1.036604857327555E2  -1.871081956681688E1  -1.176418519727469E2  
 1.321638141809291E11   -2.321637109191923E1   1.736094049344655E2  -1.125828784844939E1   8.693201429393329E1  -1.132193617001781E1   5.555815228652812E1  -2.035817791751363E1  -1.307422219381062E2  
 1.321760391198044E11   -2.695000523779115E1  -1.674736573045142E2  -1.134407101883923E1   3.821166555331926E1  -1.142357674624824E1   6.968175425999646  -2.132431412553563E1  -1.174359311575232E2  
 1.321882640586797E11   -2.235691353207802E1  -1.416983532518804E2  -1.162396967033952E1  -8.937536291673220  -1.170254745420183E1  -4.010860500758692E1  -1.819384006671920E1  -1.175898778089597E2  
 1.322004889975550E11   -1.866423602886072E1  -1.615961135238460E2  -1.158204892109938E1  -5.447358160281492E1  -1.164233424634840E1  -8.594517076403263E1  -1.710291630622019E1  -1.404142257640046E2  
 1.322127139364303E11   -1.919384894918318E1   1.737084394573967E2  -1.137288611096840E1  -1.014864974453033E2  -1.144340841205214E1  -1.329132648970831E2  -1.967202256752368E1  -1.616120312938149E2  
 1.322249388753056E11   -2.237802797606631E1   1.678021188461889E2  -1.135941026063283E1  -1.498636394074552E2  -1.142205103761962E1   1.787062835793168E2  -2.459822503254257E1  -1.475669969042803E2  
 1.322371638141809E11   -2.223027801963876E1  -1.741382775089531E2  -1.142712386017621E1   1.629459591245480E2  -1.148255892158407E1   1.314557470828088E2  -2.113426681458762E1  -1.245501471343494E2  
 1.322493887530562E11   -2.017811337575969E1   1.747517917770797E2  -1.133706767206408E1   1.158510011913444E2  -1.139515972554929E1   8.390041017326242E1  -1.949245433851017E1  -1.418391103831179E2  
 1.322616136919315E11   -2.219357895876750E1   1.607838209281795E2  -1.128722157334441E1   6.739192503473764E1  -1.134100576631393E1   3.553906734300347E1  -2.184775645455287E1  -1.513990306476173E2  
 1.322738386308068E11   -2.500102425899742E1  -1.754339114052056E2  -1.148949643239113E1   1.922730391674943E1  -1.155441224600850E1  -1.275592145184035E1  -2.210355026120724E1  -1.279201577238463E2  
 1.322860635696822E11   -1.965476235591604E1  -1.619832800950897E2  -1.166355934162811E1  -2.687922734952270E1  -1.171384335738781E1  -5.888392258597284E1  -1.807502429079808E1  -1.348098825263012E2  
 1.322982885085575E11   -1.702212291894158E1   1.741576682921684E2  -1.154629406931078E1  -7.323861326212762E1  -1.160752907787468E1  -1.052587697321743E2  -1.757673247599174E1  -1.619206796452078E2  
 1.323105134474328E11   -1.775662435638265E1   1.504957317408249E2  -1.144729872561747E1  -1.211865803231513E2  -1.150495706654059E1  -1.526956825482749E2  -2.123603769495483E1   1.731885857708907E2  
 1.323227383863081E11   -2.082053364588531E1   1.423743929638943E2  -1.152857951391448E1  -1.684151918978542E2  -1.157798727078365E1   1.595381084725296E2  -2.928073264140243E1  -1.502113163221933E2  
 1.323349633251834E11   -2.101898568827334E1   1.574947509551983E2  -1.153209618947757E1   1.450205695905068E2  -1.157603710552766E1   1.132219133521742E2  -2.165550503312379E1  -1.272263459367698E2  
 1.323471882640587E11   -1.935603431752706E1   1.457757388973514E2  -1.138835754166700E1   9.758677994223334E1  -1.143805725849571E1   6.572019402753996E1  -2.026197715045234E1  -1.494279277834719E2  
 1.323594132029340E11   -2.126211794128658E1   1.286553147667812E2  -1.137912174310059E1   4.971586617996672E1  -1.142946730661076E1   1.720238285893157E1  -2.312153254124557E1  -1.543680418781550E2  
 1.323716381418093E11   -2.566798501187440E1   1.426626879009998E2  -1.149946954156355E1   2.246981880601125  -1.156198964004436E1  -2.990128205319958E1  -2.155694640149731E1  -1.287975959691430E2  
 1.323838630806846E11   -2.132759478517313E1   1.645558239878163E2  -1.145401612030668E1  -4.473209723496208E1  -1.151657974620394E1  -7.653301331208118E1  -1.809229715935457E1  -1.422773478148148E2  
 1.323960880195599E11   -1.922349440042999E1   1.424006140445864E2  -1.137330938717791E1  -9.228811538793987E1  -1.142899405725096E1  -1.241161741334436E2  -1.827191721183673E1  -1.645093201421869E2  
 1.324083129584352E11   -2.143260214813408E1   1.205943167839564E2  -1.141121524667090E1  -1.401835282073172E2  -1.148027401464925E1  -1.723709930602448E2  -2.158925756641387E1  -1.703589384174403E2  
 1.324205378973105E11   -2.666762959584577E1   1.387846813836201E2  -1.155129331110607E1   1.725787615371661E2  -1.161925408977068E1   1.408807431276499E2  -2.082522110756923E1  -1.460600959966537E2  
 1.324327628361858E11   -2.122807336322830E1   1.603081010196287E2  -1.149153207413128E1   1.261419163066194E2  -1.154110190571230E1   9.431735443039220E1  -1.760879970954283E1  -1.580410621232205E2  
 1.324449877750611E11   -1.915756054642352E1   1.355334623407310E2  -1.143827482437844E1   7.873648215780744E1  -1.149018720532009E1   4.706725150961165E1  -1.795703518880499E1   1.797854208162993E2  
 1.324572127139364E11   -2.153377148721904E1   1.112821295084979E2  -1.145612706522574E1   3.115307050407790E1  -1.152204096975245E1  -7.551316938650454E-1  -2.164253774747150E1   1.729816553107247E2  
 1.324694376528117E11   -2.717850624269684E1   1.313626365292410E2  -1.142257990629336E1  -1.551985212800658E1  -1.148795902221068E1  -4.724259163068095E1  -2.135524879558808E1  -1.614049418527152E2  
 1.324816625916870E11   -2.215076491343725E1   1.501990872009444E2  -1.129937700898783E1  -6.332341629799875E1  -1.135448773275509E1  -9.464492930750801E1  -1.856887224854042E1  -1.703074068581315E2  
 1.324938875305624E11   -2.085216770636010E1   1.287911675728888E2  -1.127275163245098E1  -1.118030908237019E2  -1.133890167910720E1  -1.430326073487157E2  -1.909515226420899E1   1.722620389061763E2  
 1.325061124694377E11   -2.444604154550442E1   1.185354624924766E2  -1.140072827114519E1  -1.595787367916212E2  -1.147173516843010E1   1.693303560603258E2  -2.215766130771577E1   1.766884464416822E2  
 1.325183374083130E11   -2.366439178263523E1   1.596448987466067E2  -1.147455629498676E1   1.534300768745829E2  -1.153545956636648E1   1.224868773852085E2  -1.930174579911309E1  -1.642543360855097E2  
 1.325305623471883E11   -1.827187714506761E1   1.456933451038464E2  -1.147903175369871E1   1.063387829110905E2  -1.154442336567647E1   7.540480662659532E1  -1.646992150506711E1   1.784602538225391E2  
 1.325427872860636E11   -1.735692934145119E1   1.161790729850098E2  -1.151594884218048E1   5.924268701024268E1  -1.159128914032044E1   2.826833075938232E1  -1.677906537205317E1   1.547047346778310E2  
 1.325550122249389E11   -2.007184336900371E1   9.077142892229982E1  -1.154208877943572E1   1.256258632192434E1  -1.158892277763585E1  -1.828993404694698E1  -2.004049960625709E1   1.447511319700435E2  
 1.325672371638142E11   -2.514898544497929E1   1.068906618783709E2  -1.137897919735131E1  -3.436256354711337E1  -1.143316769529249E1  -6.541855224705756E1  -2.038838122407855E1   1.623438825652101E2  
 1.325794621026895E11   -2.102130169498394E1   1.202315155233926E2  -1.131884801976322E1  -8.277333468243332E1  -1.136857792878074E1  -1.134042647046114E2  -1.806480626818478E1   1.550165016538637E2  
 1.325916870415648E11   -1.964848409919179E1   9.330261523830312E1  -1.145074439519749E1  -1.307253083739383E2  -1.150167228421481E1  -1.610022993960645E2  -1.817447865252478E1   1.346331451278502E2  
 1.326039119804401E11   -2.329869468830052E1   5.759123851468123E1  -1.155553592235304E1  -1.770101202229874E2  -1.161589129842257E1   1.522624818127717E2  -2.141830618620747E1   1.259701337985320E2  
 1.326161369193154E11   -4.781473697236545E1   1.526327281540171E2  -1.141909608335764E1   1.364673992743844E2  -1.147208695265108E1   1.063998715525194E2  -2.130053766650724E1   1.434318160920667E2  
 1.326283618581907E11   -2.426401370772092E1   1.550491764289415E2  -1.125592726086293E1   8.873883405916604E1  -1.133763346759621E1   5.841158237316608E1  -1.924936521996403E1   1.306288896972360E2  
 1.326405867970660E11   -2.218625155623365E1   1.251334996374061E2  -1.128219172963641E1   4.086498273628999E1  -1.135293077720213E1   1.091398876492288E1  -2.051371915710281E1   1.063214594788167E2  
 1.326528117359413E11   -2.526117250797958E1   1.181133611249790E2  -1.125058850917165E1  -6.198331772672995  -1.132152359999928E1  -3.577258501176094E1  -2.628467304911812E1   1.034401627520654E2  
 1.326650366748166E11   -2.336617877994250E1   1.459437901881082E2  -1.111957973755777E1  -5.365964930638034E1  -1.117711478882033E1  -8.342050792032265E1  -2.457402124888520E1   1.400486828452593E2  
 1.326772616136919E11   -1.957320350757180E1   1.338991627750887E2  -1.113795879857335E1  -1.021020753855615E2  -1.120439099501509E1  -1.316695778966495E2  -2.131127049878208E1   1.209471975323739E2  
 1.326894865525672E11   -1.891727626709119E1   1.135395003993236E2  -1.125212411785488E1  -1.493356773862989E2  -1.131638943122585E1  -1.791979799675793E2  -2.276530376749672E1   8.505269809641240E1  
 1.327017114914425E11   -2.032353723505843E1   1.043586796014843E2  -1.120107330713504E1   1.639821004705236E2  -1.126245839805047E1   1.342722031750416E2  -3.349064568118720E1   4.298266962256715E1  
 1.327139364303178E11   -1.991841678559215E1   1.062306657589442E2  -1.105953713782155E1   1.160902275014435E2  -1.111370215370967E1   8.646811173576384E1  -2.967116960008931E1  -1.651184590965821E2  
 1.327261613691932E11   -1.921061377014273E1   9.301922986535662E1  -1.107340436530316E1   6.770576022608698E1  -1.113781741492106E1   3.820647479055603E1  -2.410162959730318E1   1.605240629769151E2  
 1.327383863080685E11   -2.131776761981080E1   7.624933468578975E1  -1.115750824750296E1   2.015376839916732E1  -1.123960973702971E1  -9.214495538094578  -2.538312008980632E1   1.402182222601907E2  
 1.327506112469438E11   -2.600974975549440E1   9.730018208118243E1  -1.116846039716778E1  -2.673322050523897E1  -1.123209711039457E1  -5.637705382872160E1  -2.527110753844851E1   1.652059687811690E2  
 1.327628361858191E11   -2.071320020121379E1   1.183524693053738E2  -1.119217898267298E1  -7.456299685833488E1  -1.124976323181734E1  -1.045433951069059E2  -2.017987130289916E1   1.568958550862481E2  
 1.327750611246944E11   -1.788599720299913E1   9.657634300744446E1  -1.135011694123241E1  -1.218773177249638E2  -1.141596925315293E1  -1.514226812092360E2  -1.830999010172492E1   1.291004564692263E2  
 1.327872860635697E11   -1.887203909064068E1   6.988146473112030E1  -1.136780986511859E1  -1.679021290107592E2  -1.142706808803314E1   1.625889073557608E2  -1.962849960785998E1   1.032271562591233E2  
 1.327995110024450E11   -2.371528321843386E1   6.221457010987093E1  -1.112186008973897E1   1.450105330592391E2  -1.119173483478771E1   1.155870851045735E2  -2.214628877435709E1   9.751123069664462E1  
 1.328117359413203E11   -2.435236311608748E1   9.855002476784809E1  -1.105961064351423E1   9.650830145509468E1  -1.112397628874940E1   6.685807353881779E1  -2.164918182109701E1   9.818532301234032E1  
 1.328239608801956E11   -2.054053464035257E1   9.578938385815877E1  -1.122299301137954E1   4.857910088342970E1  -1.127234494841860E1   1.859856867137271E1  -2.056740220678289E1   7.666725354996454E1  
 1.328361858190709E11   -2.053684677832512E1   8.143021059551616E1  -1.130186325284932E1   2.282693870668295  -1.135519247863803E1  -2.738966037993533E1  -2.273117050791528E1   3.987245107498374E1  
 1.328484107579462E11   -2.122330507561759E1   8.509109885115755E1  -1.112270241092661E1  -4.446123430611565E1  -1.116789626893009E1  -7.432391199522451E1  -3.139397860829403E1  -5.906646790206168  
 1.328606356968215E11   -1.945110403111458E1   8.367684222865206E1  -1.109445700563846E1  -9.302145461473879E1  -1.112156546214855E1  -1.230137965779567E2  -3.549476021352628E1   1.671374091772267E2  
 1.328728606356968E11   -1.883231600248611E1   6.745397994093270E1  -1.122750381613792E1  -1.406533226772777E2  -1.126716636604033E1  -1.707634532809332E2  -2.999557482042996E1   1.177817753228471E2  
 1.328850855745721E11   -2.145490379229338E1   5.335572672891171E1  -1.123420511890410E1   1.729719342425146E2  -1.126916509694240E1   1.425694998159133E2  -3.615710785217126E1   1.211714900809862E2  
 1.328973105134474E11   -2.369751295849869E1   7.875624675333368E1  -1.109937883027587E1   1.250424631088824E2  -1.115234390639499E1   9.516871196073210E1  -2.867404611443065E1   1.629214731093862E2  
 1.329095354523227E11   -1.953043175040560E1   8.356583041442600E1  -1.124039510940810E1   7.683027955356505E1  -1.126918846002138E1   4.668702241567263E1  -2.397896598252183E1   1.370026199516445E2  
 1.329217603911980E11   -1.799879646747975E1   6.202299969591947E1  -1.144688985519292E1   3.066794376977801E1  -1.147363565852030E1   2.043037343946391E-1  -2.434760689665181E1   1.035364959008881E2  
 1.329339853300734E11   -2.031650277648041E1   4.342491707908349E1  -1.129525962961353E1  -1.503731717200191E1  -1.134201083158754E1  -4.539906120556708E1  -2.945813207257455E1   1.004102163779564E2  
 1.329462102689487E11   -2.344229857989651E1   6.061655207261552E1  -1.107285794311229E1  -6.327683916383190E1  -1.112241264183077E1  -9.349308388756849E1  -2.756377077324723E1   1.323669753141739E2  
 1.329584352078240E11   -2.004105048136374E1   7.120169886408779E1  -1.118170676563688E1  -1.112857735327939E2  -1.121045869289370E1  -1.420744860830946E2  -2.348200079630496E1   1.171431627624568E2  
 1.329706601466993E11   -1.850324231160845E1   5.295226361876394E1  -1.131084014222330E1  -1.579412735748608E2  -1.138252656663019E1   1.717693853907967E2  -2.387233386774451E1   8.535573102871551E1  
 1.329828850855746E11   -2.031835640196149E1   3.992749000858388E1  -1.112210528210454E1   1.561454867452056E2  -1.117256644319517E1   1.255116346589675E2  -2.963171408381154E1   6.730004228603657E1  
 1.329951100244499E11   -2.155495600409460E1   4.970297012125415E1  -1.092812620892737E1   1.075048409956829E2  -1.098765153576070E1   7.749191735133815E1  -3.357901740959520E1   1.286613974951067E2  
 1.330073349633252E11   -1.964211551046696E1   4.900185193281320E1  -1.100586205687634E1   5.931654758703359E1  -1.107344803746204E1   2.909646595405658E1  -2.663363138205992E1   1.296165240307488E2  
 1.330195599022005E11   -1.966548152749741E1   3.099126266232776E1  -1.105942919333695E1   1.286928089683333E1  -1.112883222174637E1  -1.773331763152949E1  -2.638003878876666E1   1.126276572581007E2  
 1.330317848410758E11   -2.340123355673135E1   2.559913818504075E1  -1.087137082464121E1  -3.477996010667612E1  -1.095936242357404E1  -6.509034433479305E1  -2.702239440796586E1   1.216980182185642E2  
 1.330440097799511E11   -2.339603129872306E1   5.915265761466206E1  -1.090418106273387E1  -8.364580367502217E1  -1.096566367174974E1  -1.141437013382403E2  -2.391381279532510E1   1.283240503134277E2  
 1.330562347188264E11   -1.899391374609047E1   5.336948787132421E1  -1.114022397039465E1  -1.313261982866878E2  -1.121247616036384E1  -1.615957559259173E2  -2.100848559900873E1   1.095897829270768E2  
 1.330684596577017E11   -1.825593177630514E1   2.907891408646939E1  -1.120752850523020E1  -1.768318627364781E2  -1.129479485173767E1   1.527989258382224E2  -2.159469952943728E1   8.641691245511267E1  
 1.330806845965770E11   -2.109136121451202E1   1.333066250155350E1  -1.094440720123575E1   1.361816808363654E2  -1.102047218098313E1   1.061668592884061E2  -2.357443274507680E1   7.821536570672596E1  
 1.330929095354523E11   -2.395394735724780E1   3.041576389011580E1  -1.086262964003313E1   8.727810897181814E1  -1.094499800867549E1   5.755813286387937E1  -2.452230214795494E1   8.129727721883414E1  
 1.331051344743276E11   -2.112410890522877E1   4.034701214296190E1  -1.102913054108952E1   3.978881518140447E1  -1.110928033096336E1   9.833577455019478  -2.405684762765801E1   7.416843772994589E1  
 1.331173594132029E11   -2.056720075475292E1   2.748262450065036E1  -1.099956113665145E1  -6.814804756808323  -1.107719215530735E1  -3.662791143508413E1  -2.680325615848490E1   6.011108176892293E1  
 1.331295843520783E11   -2.162114271350391E1   3.019043102642123E1  -1.085173611005603E1  -5.462466860863542E1  -1.094093470130434E1  -8.495652285490394E1  -3.326489448439850E1   8.668293842027602E1  
 1.331418092909536E11   -1.932233703727572E1   3.610396586845459E1  -1.099209816790740E1  -1.032883337327346E2  -1.107139362292991E1  -1.332500243807967E2  -2.624281960815651E1   1.342478166878064E2  
 1.331540342298289E11   -1.701988286976598E1   1.761111091651058E1  -1.122380198414029E1  -1.497686930299317E2  -1.129918589036187E1  -1.797015956309501E2  -2.162679076996895E1   1.175620857042875E2  
 1.331662591687042E11   -1.750646718532666E1  -1.052030229305339E1  -1.109992389757872E1   1.639760841339570E2  -1.119391565630122E1   1.343973878081438E2  -1.987473139306341E1   1.037098370973029E2  
 1.331784841075795E11   -2.145083447440639E1  -3.740205176233233E1  -1.093980605936824E1   1.164985889190355E2  -1.102677431264128E1   8.663656280064437E1  -1.862910985512993E1   8.882679906650044E1  
 1.331907090464548E11   -3.238080939727968E1  -1.370473580349329E1  -1.099047289033509E1   6.804489311182111E1  -1.107154757124355E1   3.828135659624286E1  -1.801340116550353E1   7.381223288381334E1  
 1.332029339853301E11   -2.421513489738162E1   3.154616325286424E1  -1.113933586693718E1   2.170607511625116E1  -1.121624656371713E1  -8.467458408067014  -1.831056205005269E1   5.647175464020008E1  
 1.332151589242054E11   -2.257246597804543E1   1.051018030683038E1  -1.094438218438556E1  -2.474841568011231E1  -1.102060002750530E1  -5.485565176423115E1  -1.980515906871167E1   4.523409698210348E1  
 1.332273838630807E11   -2.477488649352924E1   1.272634117562546  -1.080718303874840E1  -7.321056419509132E1  -1.087509774989204E1  -1.032970882006032E2  -2.120278264536181E1   3.996602805823224E1  
 1.332396088019560E11   -2.553606436443075E1   2.100051399820999E1  -1.091082615337091E1  -1.213405671312589E2  -1.098597618189725E1  -1.517369926395667E2  -2.193573028824546E1   4.020795736606547E1  
 1.332518337408313E11   -2.297465801164586E1   1.424594528101541E1  -1.105798520165518E1  -1.678461633749783E2  -1.113198667445246E1   1.615219024565936E2  -2.254643603585002E1   3.131483042753925E1  
 1.332640586797066E11   -2.512700288890478E1   1.852288621496906  -1.088153160008033E1   1.451945727954359E2  -1.095173080536553E1   1.147997501702789E2  -2.525809270413694E1   3.079242648550886E1  
 1.332762836185819E11   -2.758564319773423E1   3.307869217143814E1  -1.082267277971916E1   9.637040412881082E1  -1.088252901672975E1   6.607187750032867E1  -2.659744040797489E1   5.182509937611486E1  
 1.332885085574572E11   -2.183621515902767E1   4.430631295466214E1  -1.101775212381955E1   4.884562819113106E1  -1.109755035180780E1   1.827378176666526E1  -2.363110584511977E1   6.234257001763719E1  
 1.333007334963325E11   -1.943066331273414E1   2.170547787672626E1  -1.105759686090902E1   2.641183835242811  -1.112029167125278E1  -2.718549716854203E1  -2.221434068325178E1   5.346166911112420E1  
 1.333129584352078E11   -2.040197194152686E1   4.034380599878762  -1.083701174897812E1  -4.442688720509212E1  -1.090306647288773E1  -7.477641259503385E1  -2.176745525261595E1   4.583984752049168E1  
 1.333251833740831E11   -2.245570155552303E1   5.674718563928729  -1.080887158149386E1  -9.313220382690138E1  -1.086897045693736E1  -1.235837045308968E2  -2.225332861129350E1   4.010213729106170E1  
 1.333374083129584E11   -2.075490168719784E1   1.536781737632662E1  -1.103830369987281E1  -1.409712071579283E2  -1.110759880717705E1  -1.711371313333534E2  -2.190674205595855E1   3.964182667073664E1  
 1.333496332518337E11   -1.954687609956095E1   4.482345327141399E-1  -1.105846789292495E1   1.735918145429834E2  -1.112941387683541E1   1.431041770745501E2  -2.216997830044977E1   3.164342147065496E1  
 1.333618581907091E11   -2.107636328655539E1  -9.462435407631842  -1.082649692153015E1   1.258828833743391E2  -1.090365101043589E1   9.559465627238785E1  -2.298164574256644E1   3.152266555574277E1  
 1.333740831295844E11   -2.227543708329059E1   1.020870587882664  -1.085290014762418E1   7.682275297661064E1  -1.092385454903582E1   4.713786954219896E1  -2.352469319405473E1   3.716854516113854E1  
 1.333863080684597E11   -1.966257365729489E1   2.567485610461741  -1.109349766164129E1   3.023629111248646E1  -1.114739094224615E1  -7.076615684726301E-2  -2.214566682608440E1   4.106604905271036E1  
 1.333985330073350E11   -1.897266951010601E1  -1.426773792121474E1  -1.098196551384284E1  -1.598564838592284E1  -1.104084205518183E1  -4.586357754064916E1  -2.140016517028690E1   3.726509423741447E1  
 1.334107579462103E11   -2.031074832748098E1  -2.710139310275736E1  -1.078131385307659E1  -6.410119161722007E1  -1.083851749484894E1  -9.397147118677697E1  -2.053442150825173E1   3.167706695609187E1  
 1.334229828850856E11   -2.247770114562140E1  -2.442624383429881E1  -1.082650183166314E1  -1.126942039778270E2  -1.089093150497307E1  -1.425510860595869E2  -2.048804517613631E1   2.536932321066163E1  
 1.334352078239609E11   -2.140875338041798E1  -1.799506269035948E1  -1.102460277698971E1  -1.597725604860112E2  -1.108928568009561E1   1.703475335048470E2  -2.027565030372274E1   1.972909078029288E1  
 1.334474327628362E11   -2.133703896853297E1  -2.827606977808936E1  -1.089960266616017E1   1.539955665862275E2  -1.096439076499115E1   1.240197424529450E2  -2.078014590831350E1   1.454883315717214E1  
 1.334596577017115E11   -2.301732454729740E1  -3.243376823459154E1  -1.078466297360385E1   1.056041764445552E2  -1.084217540876691E1   7.584132339122510E1  -2.072441537953673E1   1.251070878318106E1  
 1.334718826405868E11   -2.396221898841034E1  -1.576172819668979E1  -1.098532568922646E1   5.700201128707649E1  -1.104558222620667E1   2.714418015313607E1  -2.062079074286883E1   8.386146283442399  
 1.334841075794621E11   -2.077436028431479E1  -1.775469609994390E1  -1.120760940494942E1   1.112504190497976E1  -1.128093187220420E1  -1.813556229665690E1  -2.065508685044631E1  -1.494114921197485  
 1.334963325183374E11   -2.112299216786961E1  -3.549557972611634E1  -1.097384897403124E1  -3.458617367748774E1  -1.103204697507963E1  -6.421339884900505E1  -2.276191142684222E1  -6.778877772858999  
 1.335085574572127E11   -2.347254809045533E1  -3.827925489910155E1  -1.075886181584087E1  -8.285342204143960E1  -1.083279987035986E1  -1.127139976854973E2  -2.378593027612023E1   5.801579230957925E-1  
 1.335207823960880E11   -2.326245587426885E1  -2.180584606482594E1  -1.089424484587927E1  -1.313427644758692E2  -1.094802790096417E1  -1.608932892239314E2  -2.379002014962222E1   8.481655313086337  
 1.335330073349633E11   -2.106169284401880E1  -2.983996613488777E1  -1.095288938823628E1  -1.774781440051413E2  -1.100275187528966E1   1.530851245211838E2  -2.317085136999316E1   9.518766523344025  
 1.335452322738386E11   -2.166371883543210E1  -4.334189316974005E1  -1.073000019118849E1   1.350377068034234E2  -1.079172881288476E1   1.054183730767019E2  -2.261591865196583E1   1.490173237598163E1  
 1.335574572127139E11   -2.388900690223676E1  -4.905244602482909E1  -1.067023722347926E1   8.667540627712252E1  -1.073388804245679E1   5.691849673045622E1  -2.133047469154388E1   1.271677415925657E1  
 1.335696821515892E11   -2.491064222952101E1  -3.040925699231306E1  -1.087614742113253E1   3.846532530231166E1  -1.092939211735245E1   9.005992730147584  -2.065622271810382E1   8.721807116814324  
 1.335819070904645E11   -2.270454458550484E1  -3.334889687935356E1  -1.090351578563121E1  -7.366964057995883  -1.097884710542601E1  -3.723646386854535E1  -2.032833583832568E1   1.753388418103318  
 1.335941320293399E11   -2.291902457730269E1  -3.997573836342250E1  -1.072489207689788E1  -5.525477910753570E1  -1.078246079751991E1  -8.463622395827889E1  -2.005370435659911E1  -8.144923372383985E-1  
 1.336063569682152E11   -2.375307320377817E1  -4.227738200113606E1  -1.073850224952147E1  -1.042450323562924E2  -1.080210788617038E1  -1.334219495920302E2  -1.959188262429911E1  -8.222458825514863  
 1.336185819070905E11   -2.320310811838948E1  -3.510023053768936E1  -1.099646630750840E1  -1.513388679628138E2  -1.104875388524895E1   1.792109074094409E2  -1.973259341335683E1  -1.714551550884191E1  
 1.336308068459658E11   -2.260257844190883E1  -4.855583060808765E1  -1.093535850050563E1   1.629898483724445E2  -1.100491839312943E1   1.334606240033033E2  -2.124996331363447E1  -2.682471193726718E1  
 1.336430317848411E11   -2.533976440967061E1  -5.255006539526814E1  -1.073859569792445E1   1.150842166093466E2  -1.079248655364934E1   8.546828932652888E1  -2.314454843780067E1  -2.040407730976238E1  
 1.336552567237164E11   -2.646064496693295E1  -2.455112846256385E1  -1.083393964616239E1   6.622408982867322E1  -1.090978375549315E1   3.655444027496599E1  -2.302345976182395E1  -1.185037358775068E1  
 1.336674816625917E11   -2.156831348037367E1  -2.093229561252592E1  -1.112371809815629E1   1.990694630023209E1  -1.119450996469308E1  -1.014249465537062E1  -2.212901812348647E1  -1.080766998598134E1  
 1.336797066014670E11   -2.019089943955378E1  -4.246845413504489E1  -1.094397492996458E1  -2.588015185183845E1  -1.101856111859673E1  -5.534912508513244E1  -2.263622039310556E1  -7.641229058535345  
 1.336919315403423E11   -2.107063753491635E1  -5.790239782845730E1  -1.074121441379374E1  -7.414084946741109E1  -1.081428141730267E1  -1.035763299129026E2  -2.066803502246055E1  -4.079920887157320E-1  
 1.337041564792176E11   -2.388199631620551E1  -6.411518570511170E1  -1.081256562241627E1  -1.226688447028833E2  -1.088462058386443E1  -1.518824002102011E2  -1.883084270238373E1  -9.473185778507245  
 1.337163814180929E11   -2.451610494742394E1  -4.928965896921252E1  -1.100007743143622E1  -1.693925302873824E2  -1.104704117543597E1   1.612915780740995E2  -1.829037572296117E1  -2.256422894771409E1  
 1.337286063569682E11   -2.445279637462402E1  -4.634532392226936E1  -1.080890957721617E1   1.441337938485829E2  -1.087695373885635E1   1.150060186212091E2  -1.895619521324142E1  -3.175050627055283E1  
 1.337408312958435E11   -2.292620942557513E1  -3.710530000772243E1  -1.071167907303317E1   9.557256769915163E1  -1.076306828161400E1   6.628583033678427E1  -1.904377113495741E1  -3.734386440602911E1  
 1.337530562347188E11   -2.057466188840212E1  -4.274122216808814E1  -1.089747903452636E1   4.688568918124450E1  -1.095888393866137E1   1.799763576933745E1  -1.956177094054016E1  -4.816022122608122E1  
 1.337652811735941E11   -1.890710438538844E1  -6.242905048881980E1  -1.107450787021093E1   1.660219543788893  -1.115424859207539E1  -2.808327474872448E1  -2.092143725571187E1  -6.115958456033933E1  
 1.337775061124694E11   -2.035800690337974E1  -8.887801642677985E1  -1.082540306649091E1  -4.483810774300878E1  -1.090078519736229E1  -7.439006385504888E1  -2.571273062117273E1  -6.978013362577750E1  
 1.337897310513447E11   -2.503770927760916E1  -1.076062663593798E2  -1.070071536827221E1  -9.351931347501085E1  -1.076043762526327E1  -1.230482809640148E2  -2.908395185092918E1  -2.112481804157891E1  
 1.338019559902201E11   -3.420262940470248E1  -6.137377005637440E1  -1.086073701072844E1  -1.415626886497152E2  -1.090762203750913E1  -1.710969495298300E2  -2.409544037328768E1  -2.232938422806220  
 1.338141809290954E11   -2.579513865533174E1  -3.376211544308134E1  -1.091593402006193E1   1.722617557406989E2  -1.095974974041803E1   1.424221002178378E2  -2.183531323775202E1  -9.025813975948928  
 1.338264058679707E11   -2.344530222088272E1  -4.235278493745415E1  -1.073643535144093E1   1.243893643371821E2  -1.078868994404960E1   9.528847094496983E1  -2.020219923454875E1  -1.068606170095420E1  
 1.338386308068460E11   -2.242398379929338E1  -5.258640965876786E1  -1.077774740205086E1   7.587451097451323E1  -1.082996587086145E1   4.672917218134152E1  -1.837498328727261E1  -2.047857530899954E1  
 1.338508557457213E11   -2.181776829116187E1  -5.883059476905749E1  -1.103677638913680E1   2.824975529360166E1  -1.109198062731507E1  -5.740279648130779E-1  -1.771266225871068E1  -3.380787253753466E1  
 1.338630806845966E11   -2.170849631336624E1  -7.600520523920088E1  -1.099579293901328E1  -1.656794747657643E1  -1.104291238114498E1  -4.582168595176891E1  -1.831486165311738E1  -4.833024949190641E1  
 1.338753056234719E11   -2.475919498591883E1  -8.189357769963529E1  -1.071207044949060E1  -6.399262485064386E1  -1.075518789634298E1  -9.336011168585773E1  -1.993571671067723E1  -5.032165520019503E1  
 1.338875305623472E11   -2.564185465307359E1  -6.963360178711480E1  -1.065730721566591E1  -1.132568018097319E2  -1.069823556538574E1  -1.423789102239589E2  -1.974880836291958E1  -4.873333967032296E1  
 1.338997555012225E11   -2.463921223333746E1  -6.561313211194509E1  -1.084471488257774E1  -1.610163837534123E2  -1.087707290931585E1   1.701480455947303E2  -1.940668026650574E1  -5.343014577471717E1  
 1.339119804400978E11   -2.531849721075739E1  -7.962499654298186E1  -1.080490542895959E1   1.524919659842531E2  -1.084964376361994E1   1.235907080379157E2  -1.994208586740070E1  -6.248496361427266E1  
 1.339242053789731E11   -2.979994635583553E1  -5.794049724552684E1  -1.067069547007862E1   1.041412470819092E2  -1.071140558716471E1   7.540399740980978E1  -2.104257485603698E1  -6.316006508144873E1  
 1.339364303178484E11   -2.522368261717612E1  -2.428521274072346E1  -1.082296513468056E1   5.549787963797193E1  -1.086427866652031E1   2.640445248097955E1  -2.144890965675767E1  -6.330005133439808E1  
 1.339486552567237E11   -2.025567415229476E1  -3.659921251201170E1  -1.114891578372006E1   9.140732933011234  -1.118484270259869E1  -1.965874590452262E1  -2.177487973654140E1  -6.620031962817927E1  
 1.339608801955990E11   -1.924239295309564E1  -6.013855787137574E1  -1.097027963841118E1  -3.664079453212523E1  -1.103496976025535E1  -6.526426166008650E1  -2.437020011833075E1  -6.721821650920782E1  
 1.339731051344743E11   -2.012131431495494E1  -7.154682467478507E1  -1.079580635908845E1  -8.480970306268596E1  -1.082990306585349E1  -1.135266584894174E2  -2.329554928501767E1  -3.777764399398040E1  
 1.339853300733496E11   -2.055182396687765E1  -7.333779358618055E1  -1.096830354699167E1  -1.333372760361105E2  -1.100220635749786E1  -1.618612453309197E2  -1.981000629917556E1  -4.436670416408666E1  
 1.339975550122250E11   -1.907417553092994E1  -8.000913060307295E1  -1.116385239856154E1  -1.791175635894296E2  -1.121839695118302E1   1.524901095950469E2  -1.884675520679808E1  -6.368035751040894E1  
 1.340097799511003E11   -1.980884386430281E1  -1.004337546548500E2  -1.089182736221067E1   1.349136355850822E2  -1.093454119712742E1   1.064292007773339E2  -2.120519983387211E1  -7.962832459200747E1  
 1.340220048899756E11   -2.285962975921554E1  -1.070352714577820E2  -1.071810047058208E1   8.621002228482276E1  -1.075246893956589E1   5.772886901577756E1  -2.361303653331827E1  -6.409411834140182E1  
 1.340342298288509E11   -2.483334881078271E1  -9.172481957596362E1  -1.086752952868060E1   3.800321116189004E1  -1.089991835736169E1   9.203618103406189  -2.128951075002332E1  -5.571392236285434E1  
 1.340464547677262E11   -2.242389727809718E1  -8.833664675385548E1  -1.092903150446026E1  -7.895277953205587  -1.095230021456958E1  -3.652685544519364E1  -2.015016371259571E1  -6.941038360135393E1  
 1.340586797066015E11   -2.339063083012415E1  -1.005765113745430E2  -1.069812612104304E1  -5.578677838054341E1  -1.072719244962943E1  -8.422868960280853E1  -2.207244214049772E1  -7.565658665642222E1  
 1.340709046454768E11   -2.471801812692796E1  -9.297607289282828E1  -1.065473989438477E1  -1.044561515022487E2  -1.068677684547155E1  -1.330300907841784E2  -2.197706216323197E1  -6.413814958311120E1  
 1.340831295843521E11   -2.322224747273752E1  -8.506581087879518E1  -1.091308072707233E1  -1.528592638792933E2  -1.095808965542691E1   1.786153526801402E2  -2.020147603806604E1  -6.824371930658217E1  
 1.340953545232274E11   -2.095350256629735E1  -1.012270688795991E2  -1.109655011878711E1   1.616837975335756E2  -1.112116019737599E1   1.333650832774045E2  -1.945509979294642E1  -8.492053355590588E1  
 1.341075794621027E11   -2.314633925992250E1  -1.308288207856334E2  -1.083336302060746E1   1.153241081080827E2  -1.085907467234582E1   8.684163863197982E1  -2.187341707953755E1  -1.032207850337569E2  
 1.341198044009780E11   -3.328271731352012E1  -1.436085227130815E2  -1.076658414680008E1   6.645943358783335E1  -1.081591639685911E1   3.825507142382473E1  -2.579820654719886E1  -9.612926311286580E1  
 1.341320293398533E11   -2.778790862921553E1  -3.423176379534228E1  -1.097210306214855E1   1.925608370587471E1  -1.099923683854225E1  -9.282829149480875  -2.565953661061369E1  -8.018784320764847E1  
 1.341442542787286E11   -2.237411004123329E1  -6.248190513189462E1  -1.084830059320269E1  -2.692638972707148E1  -1.088323057791214E1  -5.519898269779240E1  -2.759536894648620E1  -8.314981230975036E1  
 1.341564792176039E11   -2.199217633082116E1  -7.725166031936985E1  -1.066653622701822E1  -7.521064198906429E1  -1.069695694469565E1  -1.033209113285622E2  -2.758278182991294E1  -3.493601775379747E1  
 1.341687041564792E11   -2.217481431545691E1  -8.332211609134275E1  -1.073930339051637E1  -1.236864091165454E2  -1.076818792042973E1  -1.519763691823729E2  -2.151865373362024E1  -3.774417720724697E1  
 1.341809290953545E11   -2.155093808617767E1  -8.221317425110668E1  -1.095255485358893E1  -1.703457315167906E2  -1.099669352054606E1   1.609817472336518E2  -1.941747560372350E1  -5.839256967235745E1  
 1.341931540342298E11   -2.092705178668308E1  -9.401933212577032E1  -1.083493695151800E1   1.432703928805697E2  -1.085941341887014E1   1.149565418346526E2  -2.063854630538799E1  -7.466745085557723E1  
 1.342053789731051E11   -2.196295134421192E1  -9.426001305656534E1  -1.066971676089198E1   9.507506773546245E1  -1.068792823993865E1   6.654854149348211E1  -2.150527162542957E1  -6.420524920102213E1  
 1.342176039119804E11   -2.103368163236572E1  -9.126066125425584E1  -1.079168336130345E1   4.648988191868955E1  -1.082400297695520E1   1.785168923857695E1  -1.879380984348557E1  -6.572467120121597E1  
 1.342298288508557E11   -1.927955205858886E1  -9.828195183461908E1  -1.102578491329313E1   1.010584941633269E-1  -1.105386066541461E1  -2.870850034198438E1  -1.747932992045513E1  -8.487381810695241E1  
 1.342420537897311E11   -1.930887216420331E1  -1.191824669154976E2  -1.087898401409715E1  -4.604314151849143E1  -1.090339014055773E1  -7.486466628318678E1  -1.907442788578389E1  -1.064835631658589E2  
 1.342542787286064E11   -2.246461639922220E1  -1.300108830612478E2  -1.075168325898223E1  -9.475321707378825E1  -1.078145517426658E1  -1.231405067848628E2  -2.284367000681916E1  -1.046179417916809E2  
 1.342665036674817E11   -2.500720003652841E1  -1.067046846084857E2  -1.095716641231895E1  -1.426805860034154E2  -1.097194395978324E1  -1.713244566427043E2  -2.150422138254004E1  -8.652170309290018E1  
 1.342787286063570E11   -2.078252707439592E1  -9.912276948281931E1  -1.106367965616650E1   1.716765810307655E2  -1.109468852226300E1   1.428086182223534E2  -1.943418421508710E1  -1.034597275684432E2  
 1.342909535452323E11   -1.999226677810154E1  -1.224455056790676E2  -1.083342915924910E1   1.248746507941524E2  -1.085285144276865E1   9.655706696416760E1  -2.171414061260335E1  -1.297654243229023E2  
 1.343031784841076E11   -2.257732137307978E1  -1.356482096552714E2  -1.069672045153874E1   7.613200834277713E1  -1.072681875920568E1   4.792300707141262E1  -2.894765819291451E1  -1.260889302027136E2  
 1.343154034229829E11   -2.533336187538626E1  -1.180780569706629E2  -1.084710758988751E1   2.825849837948709E1  -1.087893484548146E1  -3.788821380615208E-1  -2.669550250405396E1  -7.521371624945098E1  
 1.343276283618582E11   -2.212600714361636E1  -1.106292695291040E2  -1.091893416094332E1  -1.797101783416280E1  -1.096054226807996E1  -4.657686892350208E1  -2.361775030181913E1  -9.145008052546810E1  
 1.343398533007335E11   -2.206599545568225E1  -1.271876097764884E2  -1.071720471629639E1  -6.517476528285332E1  -1.073413438595754E1  -9.406277108933759E1  -2.727400895713185E1  -1.033221891990943E2  
 1.343520782396088E11   -2.468693563217284E1  -1.262508339134747E2  -1.070822220521699E1  -1.142809666486006E2  -1.075162460245639E1  -1.425960611964726E2  -2.725327059940050E1  -5.758999222629126E1  
 1.343643031784841E11   -2.421240076494759E1  -1.029205708608988E2  -1.096964691951914E1  -1.616424331608278E2  -1.099435950121034E1   1.697715578371733E2  -2.185178518391811E1  -6.258590756294036E1  
 1.343765281173594E11   -2.076116894104690E1  -1.116461655901622E2  -1.094285123873780E1   1.532533595290190E2  -1.099293980195282E1   1.241265410934502E2  -2.104053405117908E1  -8.648588988029610E1  
 1.343887530562347E11   -2.175349947736532E1  -1.267862601714117E2  -1.072228760101762E1   1.054169902447635E2  -1.074787165006790E1   7.616194966956374E1  -2.424345061259934E1  -8.917180260154846E1  
 1.344009779951100E11   -2.324762740128907E1  -1.216558888952141E2  -1.072585789733526E1   5.667648732743928E1  -1.074177118665502E1   2.709496305455363E1  -2.258547144963172E1  -6.583723366123397E1  
 1.344132029339853E11   -2.204754455967744E1  -1.095285410995000E2  -1.101244649000482E1   9.238439660929593  -1.104541081352712E1  -2.059991307898024E1  -1.930077634713381E1  -7.556097609597195E1  
 1.344254278728606E11   -1.964706941525337E1  -1.204288065679204E2  -1.103228615309532E1  -3.638742540124597E1  -1.105437565283714E1  -6.598530615876041E1  -1.902355982332363E1  -9.651693421829161E1  
 1.344376528117360E11   -2.107305962968147E1  -1.346568010717312E2  -1.081684128989503E1  -8.382559262010921E1  -1.084402482369238E1  -1.138217064766487E2  -2.179331905545541E1  -9.975340406220536E1  
 1.344498777506113E11   -2.273187359204267E1  -1.233638244285844E2  -1.088739274342393E1  -1.322456274169033E2  -1.090619047441030E1  -1.623546825585141E2  -2.028062372966556E1  -8.319689286726117E1  
 1.344621026894866E11   -2.002571851187786E1  -1.126423495517097E2  -1.110938841097217E1  -1.787416851260573E2  -1.112827450622783E1   1.511097116459084E2  -1.749420438081524E1  -9.751303253647234E1  
 1.344743276283619E11   -1.815327248822479E1  -1.308650525814792E2  -1.093028136626353E1   1.350956743981535E2  -1.096438039714682E1   1.050278556828373E2  -1.800482205666786E1  -1.218620882357437E2  
 1.344865525672372E11   -2.004965176785473E1  -1.430793258675436E2  -1.076248892995327E1   8.676271551694117E1  -1.081194108400216E1   5.689945662909693E1  -2.179152600318927E1  -1.279490708833188E2  
 1.344987775061125E11   -2.109938818633516E1  -1.265680879592120E2  -1.093003838974071E1   3.807376751011657E1  -1.095873057644717E1   8.029889734918283  -2.123911360705619E1  -1.046817148256571E2  
 1.345110024449878E11   -1.708827416203597E1  -1.241878386763257E2  -1.112983751150033E1  -7.858300690644095  -1.118971236462693E1  -3.790275768307875E1  -1.796282468801910E1  -1.184551786851675E2  
 1.345232273838631E11   -1.537055383367982E1  -1.473137202417281E2  -1.101093521665004E1  -5.411740063783471E1  -1.104824360969152E1  -8.408634071042275E1  -1.841272783481722E1  -1.501911798707858E2  
 1.345354523227384E11   -1.635651072232500E1  -1.688726212163406E2  -1.087833569128706E1  -1.018806733451013E2  -1.090674123254202E1  -1.321585989188720E2  -2.430956114727598E1   1.781109477985145E2  
 1.345476772616137E11   -1.938877672018948E1  -1.785398913300958E2  -1.096550528472946E1  -1.498193577426749E2  -1.098747979632164E1  -1.796101068293038E2  -3.234495953344824E1  -8.012877372741248E1  
 1.345599022004890E11   -2.028385041416005E1  -1.625965603051592E2  -1.097311201709110E1   1.640503225273051E2  -1.100295529815568E1   1.342680935069125E2  -2.202684037354554E1  -9.966294726606930E1  
 1.345721271393643E11   -1.882702998807917E1  -1.717897722772594E2  -1.072113143583855E1   1.168825582748490E2  -1.073298038498225E1   8.691802223060670E1  -2.213567569482489E1  -1.296655654557792E2  
 1.345843520782396E11   -2.041287549951897E1   1.765882900460611E2  -1.065553648306572E1   6.814163380619512E1  -1.067529376979706E1   3.861927397695024E1  -2.732847289115170E1  -1.275433513832901E2  
 1.345965770171149E11   -2.299949015332667E1  -1.738675245755261E2  -1.083078310678270E1   1.998832412200355E1  -1.083987022045419E1  -9.675904264292784  -2.368346679135885E1  -9.255699706758365E1  
 1.346088019559902E11   -2.039771561191028E1  -1.586967917679622E2  -1.089200011316162E1  -2.649122271466964E1  -1.092262948737204E1  -5.583909011673701E1  -2.007848109326020E1  -1.146868736531740E2  
 1.346210268948655E11   -1.866241477473486E1  -1.762963926183444E2  -1.074304086459611E1  -7.362741990602082E1  -1.075987579792926E1  -1.032438459617281E2  -2.183756453055719E1  -1.408953808113473E2  
 1.346332518337408E11   -2.018282051449513E1   1.669773748304186E2  -1.076816292548700E1  -1.218603368139155E2  -1.079291617442406E1  -1.514056680875491E2  -2.743942160011661E1  -1.264796005705861E2  
 1.346454767726161E11   -2.383599793517398E1   1.721201813411602E2  -1.094269724948080E1  -1.687073622700953E2  -1.096491462236893E1   1.616660018593830E2  -2.199591638185380E1  -1.026830944772389E2  
 1.346577017114914E11   -2.133880409503724E1  -1.682459975554146E2  -1.081780709625357E1   1.450735949059425E2  -1.083290274155722E1   1.154938772616989E2  -1.969815128060755E1  -1.299669823417530E2  
 1.346699266503667E11   -1.985410304983646E1   1.740134625427229E2  -1.065612505199087E1   9.683981698567384E1  -1.066437463776148E1   6.762075634512722E1  -2.222677539861552E1  -1.558183786073292E2  
 1.346821515892421E11   -2.221770766358446E1   1.591790941066431E2  -1.072075740779240E1   4.841332627899870E1  -1.073171830254023E1   1.900323846874812E1  -2.840732543295053E1  -1.365275220794819E2  
 1.346943765281174E11   -2.575258063943724E1  -1.738447361274297E2  -1.086500974018695E1   1.744744396812359  -1.087699414408275E1  -2.750966039887572E1  -2.262404721554929E1  -1.138884537935078E2  
 1.347066014669927E11   -2.038013843181075E1  -1.664314719663008E2  -1.071964839793203E1  -4.480902925212706E1  -1.074013359179065E1  -7.402920869565236E1  -2.077285127258089E1  -1.445592478517447E2  
 1.347188264058680E11   -1.902271824079051E1   1.720287294336226E2  -1.062250000676268E1  -9.311081548495521E1  -1.065960636690866E1  -1.222824582628078E2  -2.466315193527441E1  -1.776039953404070E2  
 1.347310513447433E11   -2.081224133829890E1   1.533371154263252E2  -1.071534903833363E1  -1.410311331155352E2  -1.074515938943317E1  -1.696816484270424E2  -3.790579897759088E1  -1.109363409308102E2  
 1.347432762836186E11   -2.477423065389406E1   1.635594323112871E2  -1.072699558548100E1   1.724070834152637E2  -1.074093804041177E1   1.437779259552459E2  -2.448446733643185E1  -1.007022108673312E2  
 1.347555012224939E11   -2.258009358584079E1   1.787564919444425E2  -1.053839309161500E1   1.247801830963813E2  -1.056157735803166E1   9.614327539355482E1  -2.411961776088713E1  -1.303630217920355E2  
 1.347677261613692E11   -2.204794006573399E1   1.727385396453457E2  -1.049925996164833E1   7.614086317205363E1  -1.052171943003087E1   4.754140829923838E1  -3.008681924070197E1  -1.213587054365873E2  
 1.347799511002445E11   -2.227295518518909E1   1.784355447458227E2  -1.069783612806026E1   2.755221148134454E1  -1.075847196409998E1  -6.128755269803534E-1  -2.326184467326494E1  -7.859515804545112E1  
 1.347921760391198E11   -1.965527823050733E1  -1.747637418952498E2  -1.083680475504754E1  -1.840371147636073E1  -1.088401315261834E1  -4.659736725727471E1  -1.845376984650967E1  -1.063113107399891E2  
 1.348044009779951E11   -1.713541957037090E1   1.664663463029822E2  -1.072611563533498E1  -6.550019421697847E1  -1.076587069808737E1  -9.328731252889915E1  -1.833965019135196E1  -1.393820721779603E2  
 1.348166259168704E11   -1.776403149868076E1   1.433375984114369E2  -1.065784489987943E1  -1.133995424173342E2  -1.070396980023874E1  -1.410850978321752E2  -2.250881750480016E1  -1.625821002101489E2  
 1.348288508557457E11   -2.102022662511362E1   1.307083330789718E2  -1.077074912013363E1  -1.614678244563743E2  -1.082371540987510E1   1.710605323091441E2  -2.707042659562360E1  -1.199305343084817E2  
 1.348410757946210E11   -2.300717340732927E1   1.552551797140041E2  -1.082190494860717E1   1.525829445273479E2  -1.087387230840377E1   1.248605557451836E2  -2.071301727217947E1  -1.180357964613689E2  
 1.348533007334963E11   -1.982037239587313E1   1.516165647760476E2  -1.067454231436386E1   1.050775547640604E2  -1.072157652127095E1   7.735965719201704E1  -2.015048834669460E1  -1.431867699235380E2  
 1.348655256723716E11   -2.044504235293712E1   1.332561860058797E2  -1.068762590106212E1   5.685764265899202E1  -1.072004832660876E1   2.901790329719232E1  -2.364578167152429E1  -1.480323609596409E2  
 1.348777506112470E11   -2.453247698552119E1   1.364362990786684E2  -1.081754086662238E1   9.915393467448672  -1.087424106538749E1  -1.864710985918646E1  -2.184500152484425E1  -1.208793819806831E2  
 1.348899755501223E11   -2.132258042338595E1   1.673143589117087E2  -1.078244946430649E1  -3.665028679978267E1  -1.082895419346916E1  -6.489777262759706E1  -1.823465808906302E1  -1.381412936439735E2  
 1.349022004889976E11   -1.802502971388135E1   1.489732253087747E2  -1.068884487959270E1  -8.464121681600172E1  -1.073800699047083E1  -1.126419702516522E2  -1.866473831329736E1  -1.649076536907406E2  
 1.349144254278729E11   -1.841612327749403E1   1.262034170577727E2  -1.073586006687596E1  -1.325276615110132E2  -1.079092559868261E1  -1.604074015865486E2  -2.340747673989899E1  -1.772833405018881E2  
 1.349266503667482E11   -2.163962956686779E1   1.192630515073683E2  -1.081839918220129E1  -1.793728294329389E2  -1.086808997550531E1   1.527804072114519E2  -2.373413838243764E1  -1.338067696751868E2  
 1.349388753056235E11   -2.070470407179533E1   1.366498392871533E2  -1.069841191322549E1   1.337029976859042E2  -1.074471221800729E1   1.053305116744720E2  -1.920224598802079E1  -1.434750861115903E2  
 1.349511002444988E11   -1.862516435223098E1   1.198281934021609E2  -1.069763001322317E1   8.586525323602939E1  -1.073783039528082E1   5.716114850466220E1  -1.883955435142537E1  -1.652084653202384E2  
 1.349633251833741E11   -2.023532100614234E1   9.249920922040565E1  -1.084630896657506E1   3.820603120278538E1  -1.089145373834250E1   9.443430053111836  -2.131683796462843E1  -1.712599765140953E2  
 1.349755501222494E11   -3.062421546087499E1   8.170010097782532E1  -1.091924850520710E1  -7.880450526983163  -1.098291004104856E1  -3.669957039165515E1  -2.006043731932627E1  -1.581882376891388E2  
 1.349877750611247E11   -2.367602853124837E1   1.688557551510070E2  -1.077652974247968E1  -5.510058310734544E1  -1.084393444815159E1  -8.396205892016030E1  -1.790342698298017E1  -1.754249610379402E2  
 1.350000000000000E11   -1.899784933423258E1   1.425396578996133E2  -1.077262524236901E1  -1.029502921217278E2  -1.081581671400545E1  -1.318563756610827E2  -1.915727317281194E1   1.593101845513337E2  
 1.350122249388753E11   -1.921598394924945E1   1.186395011082437E2  -1.088106418628400E1  -1.499836372096047E2  -1.093970710966495E1  -1.788983477792217E2  -2.553119547098397E1   1.525415466643188E2  
 1.350244498777506E11   -2.177729883902618E1   1.208964164402231E2  -1.082912986962883E1   1.633214294204857E2  -1.087662524368376E1   1.347248211230950E2  -2.340801084776399E1  -1.546690197742682E2  
 1.350366748166259E11   -1.885945801649390E1   1.289638354726604E2  -1.072111847430456E1   1.157372780378156E2  -1.077343184705920E1   8.698036445770778E1  -1.889576676382459E1  -1.698451160246955E2  
 1.350488997555012E11   -1.686828039292966E1   1.085163597629803E2  -1.079955183958575E1   6.807371523120121E1  -1.086304270879673E1   3.873889518336045E1  -1.861338954366802E1   1.660344165042083E2  
 1.350611246943765E11   -1.806349067940503E1   8.139252728429318E1  -1.086826557661880E1   2.176091792589500E1  -1.092966673871721E1  -7.224624260930175  -2.107617873772047E1   1.587196360001804E2  
 1.350733496332518E11   -2.352004779854516E1   7.542712083510126E1  -1.066973544749025E1  -2.435569199519108E1  -1.072739966944372E1  -5.422026312413152E1  -2.041043364901774E1   1.670510371009571E2  
 1.350855745721271E11   -2.262802885102415E1   1.120098033867295E2  -1.056585526163450E1  -7.336619902185906E1  -1.061892402949702E1  -1.025250736901068E2  -1.869874332181305E1   1.564252095924722E2  
 1.350977995110024E11   -1.905893735489141E1   9.786449495604890E1  -1.066970981911999E1  -1.212527432799019E2  -1.071070377165240E1  -1.504528637583649E2  -1.886143059594114E1   1.345081301563035E2  
 1.351100244498778E11   -1.982029459924598E1   7.157684338017756E1  -1.072866593080159E1  -1.679449492262463E2  -1.077852159514847E1   1.629946369308844E2  -2.238252050460213E1   1.215678195537125E2  
 1.351222493887531E11   -2.497988338634404E1   6.941002348618835E1  -1.054130851753696E1   1.455381402951278E2  -1.059551538235242E1   1.162088116141442E2  -2.370795166071351E1   1.391078255990020E2  
 1.351344743276284E11   -2.345375032812683E1   1.021656140848955E2  -1.048471809274601E1   9.677202708012101E1  -1.052525451530905E1   6.728339326728107E1  -2.152589074401325E1   1.353140953053632E2  
 1.351466992665037E11   -2.025993326005000E1   8.796945021295726E1  -1.061885893856061E1   4.928049775577330E1  -1.065884870938075E1   1.964754408575260E1  -2.200030023186805E1   1.130212255390735E2  
 1.351589242053790E11   -2.138303092114690E1   6.435953669832412E1  -1.065368635279463E1   2.675108560701176  -1.070429695607805E1  -2.658682389354572E1  -2.717005075311349E1   1.076736623800460E2  
 1.351711491442543E11   -2.571715240170369E1   7.366086033527648E1  -1.047310553496632E1  -4.445545340260343E1  -1.050912117060620E1  -7.436594014889909E1  -2.618538341986465E1   1.427684209562946E2  
 1.351833740831296E11   -2.248821691187204E1   9.316301501615352E1  -1.048141756510375E1  -9.308736864328370E1  -1.052742838162609E1  -1.225945691649096E2  -2.251105418273182E1   1.323978977981880E2  
 1.351955990220049E11   -2.009048201967107E1   7.247107291723999E1  -1.064127325160826E1  -1.401376364840672E2  -1.069290388667420E1  -1.704279556382708E2  -2.277935883273108E1   1.065418708968942E2  
 1.352078239608802E11   -2.216480418759279E1   4.635049624210483E1  -1.059518737612819E1   1.740534790463445E2  -1.064271053646177E1   1.432617124327211E2  -2.708402087975280E1   1.025899931883997E2  
 1.352200488997555E11   -2.825897189596709E1   5.784195353390055E1  -1.038282764400292E1   1.258992083010550E2  -1.046114761056075E1   9.533551457463479E1  -2.589940737971686E1   1.230418823435265E2  
 1.352322738386308E11   -2.444610310080728E1   8.995427696232912E1  -1.043813859480673E1   7.758618800857026E1  -1.048900501847280E1   4.722834833823689E1  -2.317405456015879E1   1.077489214939114E2  
 1.352444987775061E11   -2.158143439905175E1   7.176835596801004E1  -1.059636418507190E1   3.077042082970377E1  -1.064712839584659E1   2.899146720032010E-2  -2.404316025278213E1   7.637899464152511E1  
 1.352567237163814E11   -2.337335307473371E1   5.393781770967740E1  -1.047150031985310E1  -1.618880658987906E1  -1.053888254929600E1  -4.653599745880880E1  -3.043679548469391E1   5.849706941022071E1  
 1.352689486552567E11   -2.510206513008030E1   6.652879653778939E1  -1.036119828226185E1  -6.453648589386675E1  -1.041483295780362E1  -9.492392071723087E1  -3.318587997968849E1   1.083951478286913E2  
 1.352811735941320E11   -2.235851983541187E1   6.830524258764660E1  -1.049666941974523E1  -1.126983147970103E2  -1.055397947534744E1  -1.431813456923054E2  -2.838996445401630E1   9.889907275885676E1  
 1.352933985330073E11   -2.130162127941370E1   4.502576430460088E1  -1.065753308645927E1  -1.588212322088710E2  -1.072790683112548E1   1.702726560423355E2  -3.136349576700986E1   6.006747415940689E1  
 1.353056234718826E11   -2.493811626693750E1   2.357804365294043E1  -1.048591996298755E1   1.545706515183789E2  -1.054900096950792E1   1.238823030158228E2  -4.171211280807801E1   1.458520157210707E2  
 1.353178484107580E11   -2.903750716077267E1   5.021894646015405E1  -1.036432210854004E1   1.061059621446487E2  -1.042370801566243E1   7.541004541324362E1  -2.949309276773525E1   1.415411382397178E2  
 1.353300733496333E11   -2.507529321970229E1   5.613342531844609E1  -1.047017689269505E1   5.753568799793015E1  -1.052111184337451E1   2.707818023544710E1  -2.691992573643607E1   1.065546435389343E2  
 1.353422982885086E11   -2.540248351847464E1   2.875186985078960E1  -1.051682941972859E1   1.114386862169027E1  -1.058357570657572E1  -1.952073922617441E1  -3.080978106806122E1   7.269144065632118E1  
 1.353545232273839E11   -3.430375550792877E1   2.280879817780787E1  -1.040496898282610E1  -3.644116766417407E1  -1.045436040042799E1  -6.718951513356576E1  -3.586221065798046E1   1.255584396358675E2  
 1.353667481662592E11   -2.896315008106628E1   1.010330023940968E2  -1.047134235168085E1  -8.505022550955667E1  -1.053341770466050E1  -1.159232225106169E2  -2.844946891141639E1   1.193501621476389E2  
 1.353789731051345E11   -2.359785809415453E1   7.583053193724709E1  -1.070679490653888E1  -1.321039927765842E2  -1.076066172205923E1  -1.632775727622911E2  -2.789486729847998E1   7.705825115092404E1  
 1.353911980440098E11   -2.470787016609038E1   4.540893310232626E1  -1.069445755270280E1  -1.781135051587054E2  -1.075833382467897E1   1.512069893725262E2  -3.875015659450749E1   2.959583842145343E1  
 1.354034229828851E11   -2.965332995746325E1   6.418089117701356E1  -1.053317922223165E1   1.341120757430725E2  -1.057915147215191E1   1.034261921004382E2  -3.283163347107494E1   1.697321641551639E2  
 1.354156479217604E11   -2.376173526280673E1   8.248789240922959E1  -1.062791894559914E1   8.568831862643081E1  -1.069910608483054E1   5.490736815716159E1  -2.613029021648648E1   1.311114908283810E2  
 1.354278728606357E11   -2.070075432280045E1   5.285970845829943E1  -1.085834932522956E1   3.896846814115044E1  -1.092893563012074E1   8.616753897490007  -2.606035023240912E1   9.064455671517769E1  
 1.354400977995110E11   -2.239826533175743E1   1.703670488479914E1  -1.068133823111188E1  -6.589084576879444  -1.076578453267989E1  -3.726374511622181E1  -3.079064426124199E1   8.519305216372868E1  
 1.354523227383863E11   -3.007610238412460E1  -3.046466568119072  -1.047652541671444E1  -5.492036809288949E1  -1.053191130346923E1  -8.521646525463702E1  -2.819989850410317E1   1.024044623336090E2  
 1.354645476772616E11   -3.175285219453705E1   8.137722322947576E1  -1.058252787780580E1  -1.035034287180049E2  -1.065555449872200E1  -1.340564858366241E2  -2.461701823157709E1   7.895775454042540E1  
 1.354767726161369E11   -2.601919429064189E1   6.170864792362440E1  -1.076852384412826E1  -1.500707641282214E2  -1.083842394200204E1   1.795887270158427E2  -2.456220288317070E1   3.562315688310689E1  
 1.354889975550122E11   -2.906898729479967E1   4.907407433826049E1  -1.058800116151715E1   1.634389159309443E2  -1.065616030807276E1   1.331139106620843E2  -2.966144073891372E1  -1.075558268143425E1  
 1.355012224938875E11   -2.810003038310844E1   8.677239969740076E1  -1.048424403411949E1   1.149141317452622E2  -1.054906603563665E1   8.464217176602786E1  -5.120748714172127E1  -9.440713128972854E1  
 1.355134474327628E11   -2.318829114474796E1   7.986094903763738E1  -1.067010684334373E1   6.665785838061308E1  -1.075479386072221E1   3.639690247325653E1  -3.259331686184644E1   7.746884587315674E1  
 1.355256723716381E11   -2.264429151363168E1   5.667748882779383E1  -1.080423018838410E1   2.074901179986452E1  -1.085775175475391E1  -9.464830133348132  -3.090176979527747E1   3.143503984060608  
 1.355378973105134E11   -2.530927540240089E1   6.138496440007260E1  -1.058608198975241E1  -2.648034400794887E1  -1.063624129331725E1  -5.662705024434249E1  -3.156529640298155E1  -8.544989438216602E1  
 1.355501222493888E11   -2.184007546535986E1   7.763605322350536E1  -1.060826986496420E1  -7.572123950821678E1  -1.065654749967223E1  -1.050780779079047E2  -2.792300108153560E1  -1.625371824487629E2  
 1.355623471882641E11   -1.834675052737739E1   6.026057025174607E1  -1.086775840557667E1  -1.226873239528751E2  -1.092006457650489E1  -1.524891877871938E2  -2.628050100543928E1   1.381915385045292E2  
 1.355745721271394E11   -1.802714220884241E1   3.368767882446346E1  -1.088461456309905E1  -1.677336722786505E2  -1.092751647986954E1   1.622196553271854E2  -2.939341224418817E1   1.048594336341853E2  
 1.355867970660147E11   -2.051159795196886E1   1.957725926922734E1  -1.056789702617365E1   1.446707299159199E2  -1.063985049107935E1   1.149301125269487E2  -3.129373867322707E1   1.087603279575776E2  
 1.355990220048900E11   -2.167759586539115E1   3.176913802609730E1  -1.059641501176046E1   9.577778947268062E1  -1.066702292938242E1   6.581498247930146E1  -2.882253807441218E1   1.146415733223876E2  
 1.356112469437653E11   -1.870649323805330E1   2.882585844295919E1  -1.089718894347258E1   4.936761815281454E1  -1.097381012347672E1   1.918988946182689E1  -2.712972582340785E1   8.908417143751593E1  
 1.356234718826406E11   -1.792819563471998E1   4.277969833717917  -1.078498493791834E1   4.443591212713920  -1.085019997017392E1  -2.579856869241471E1  -3.007170674618864E1   8.375467130016098E1  
 1.356356968215159E11   -1.982909935076500E1  -1.803528969900653E1  -1.043864534387926E1  -4.382084726610746E1  -1.049980143565570E1  -7.341909500049891E1  -2.767251551254634E1   8.658535251576674E1  
 1.356479217603912E11   -2.385094302336681E1  -2.678394331632486E1  -1.036707295345522E1  -9.292901047982507E1  -1.044536129964489E1  -1.223075094451955E2  -2.619375228496659E1   6.844025257629632E1  
 1.356601466992665E11   -2.614010436443845E1  -1.338877724113331E1  -1.053328677229317E1  -1.404541563874699E2  -1.060226096221073E1  -1.699173576812617E2  -2.539996662203089E1   3.773207352700956E1  
 1.356723716381418E11   -2.849388128667415E1  -1.629052450233925E1  -1.047505102864447E1   1.728556891576426E2  -1.052892785687729E1   1.435560713807910E2  -2.784984403793199E1  -1.154006265951502E1  
 1.356845965770171E11   -3.152059893762743E1   3.704504965298867E1  -1.034540333358135E1   1.243882714572402E2  -1.040774131339064E1   9.529987548733109E1  -3.267655267372371E1  -8.940953927783613E1  
 1.356968215158924E11   -2.335194256063403E1   4.896549426585894E1  -1.048239615210057E1   7.610859893438989E1  -1.054095904769832E1   4.685885809172756E1  -3.028227258511505E1   1.742249418670887E2  
 1.357090464547677E11   -1.964914731370748E1   2.366688312319045E1  -1.067969257773349E1   2.978224206002092E1  -1.075770110564538E1   5.759252925345609E-1  -2.891507638798170E1   1.222611149463994E2  
 1.357212713936430E11   -1.991957668299636E1  -2.468849762476151  -1.048240547592876E1  -1.654945025184398E1  -1.054874139156456E1  -4.552630831427172E1  -2.931306953149839E1   1.100819704145167E2  
 1.357334963325183E11   -2.255424375213542E1  -1.246712675558063E1  -1.033167594082326E1  -6.490018598030557E1  -1.039646844803847E1  -9.382218949012099E1  -2.900095420382078E1   1.017190190769630E2  
 1.357457212713937E11   -2.281982696903737E1   2.959483789305252  -1.049082928393655E1  -1.130600309935601E2  -1.054691997537978E1  -1.425503049176171E2  -2.803678492977979E1   9.717347536792499E1  
 1.357579462102690E11   -1.972563472972058E1  -7.464888631645082  -1.060341057353017E1  -1.592645861866177E2  -1.067809205041837E1   1.716926427352719E2  -2.881551530582434E1   9.251448688355912E1  
 1.357701711491443E11   -1.976455264758648E1  -3.265228222060882E1  -1.037614751509429E1   1.538764314562354E2  -1.044652123242405E1   1.249247545633459E2  -2.634261929662901E1   1.024775967734431E2  
 1.357823960880196E11   -2.280041885897311E1  -5.388884053130646E1  -1.026712088328975E1   1.056047318441092E2  -1.033866471963229E1   7.629881431932923E1  -2.390914988300654E1   8.836900360438069E1  
 1.357946210268949E11   -2.838183682967636E1  -3.930897119658318E1  -1.041670131326252E1   5.718793767807587E1  -1.046936806494120E1   2.884674611064549E1  -2.286483846048848E1   6.989446003848981E1  
 1.358068459657702E11   -2.533850919473741E1  -2.178646760975169E1  -1.044128142992990E1   1.093643611307277E1  -1.050661614357619E1  -1.756559306863137E1  -2.420142779243958E1   5.181267198649046E1  
 1.358190709046455E11   -2.474438977520123E1  -3.664628078794900E1  -1.025735684658873E1  -3.680290074745335E1  -1.031718706032371E1  -6.586814260618995E1  -2.553336058204471E1   5.074074326875231E1  
 1.358312958435208E11   -2.750715699652645E1  -4.660248416974351E1  -1.026457881707221E1  -8.537167124699651E1  -1.030217077141296E1  -1.141782242566059E2  -2.576146995523109E1   5.099886880467500E1  
 1.358435207823961E11   -2.841649231810933E1  -2.010167515000724E1  -1.046049005217946E1  -1.330236087206584E2  -1.053729800291349E1  -1.617956013511975E2  -2.511674818914412E1   4.437028738807495E1  
 1.358557457212714E11   -2.508043985919466E1  -3.075809246242519E1  -1.045006092524996E1  -1.789672788178960E2  -1.050946160956704E1   1.519239097718460E2  -2.708368701064830E1   3.771034571615704E1  
 1.358679706601467E11   -2.604499650118360E1  -5.720783784938496E1  -1.027754198960440E1   1.326231012219973E2  -1.035487154374764E1   1.036578882783582E2  -2.690802414503014E1   5.311364866793037E1  
 1.358801955990220E11   -3.358249019503770E1  -8.445499309055987E1  -1.038622344300444E1   8.425574314344497E1  -1.043784706224618E1   5.526806518497016E1  -2.448394621344879E1   5.101899447199357E1  
 1.358924205378973E11   -3.347989862214447E1   2.894616538230501E1  -1.062259017197192E1   3.718836851306537E1  -1.068633509885374E1   8.529231700708394  -2.342357487644831E1   3.220723064561708E1  
 1.359046454767726E11   -2.822791552951490E1   6.233881369992834E-1  -1.049323424254425E1  -8.623336645042878  -1.055149714459405E1  -3.746085851541869E1  -2.569964116397372E1   2.051622788680741E1  
 1.359168704156479E11   -2.926436611829183E1  -7.949227649997494  -1.035512592154797E1  -5.688630427304503E1  -1.040414024061144E1  -8.594202516994373E1  -2.689247295540656E1   2.427850076886562E1  
 1.359290953545232E11   -2.852323926479704E1   1.385770485920539E1  -1.055108679478535E1  -1.058592416790194E2  -1.060638444820190E1  -1.348040210234910E2  -2.668909681953544E1   3.127986772265722E1  
 1.359413202933985E11   -2.369380411176433E1   3.892289116213629  -1.080321151963224E1  -1.514802014275354E2  -1.085050352504859E1   1.793852950862955E2  -2.596284684384476E1   1.769252120437861E1  
 1.359535452322738E11   -2.359091696109161E1  -2.363457439763733E1  -1.054920635418971E1   1.626884243371709E2  -1.059479343689334E1   1.336188670856713E2  -3.018897994256108E1   2.131080667863668E1  
 1.359657701711491E11   -2.696034390213001E1  -3.511456220456918E1  -1.036494814682051E1   1.138857764346376E2  -1.041271524905367E1   8.466390525846101E1  -2.891998045169158E1   4.894386123678068E1  
 1.359779951100244E11   -2.872030645916282E1  -3.164410532114517  -1.056534823076939E1   6.558464850341258E1  -1.061224359313955E1   3.589107424435555E1  -2.518178098417357E1   5.553612751827794E1  
 1.359902200488998E11   -2.390905466379426E1  -6.042433837481005  -1.078550784023736E1   1.978385834805834E1  -1.083515476383457E1  -1.012068938282319E1  -2.274040951739519E1   3.628582549166590E1  
 1.360024449877751E11   -2.377382639678545E1  -2.451995470800011E1  -1.053971876718310E1  -2.661920395218963E1  -1.057661180428947E1  -5.638084352347118E1  -2.328108137490005E1   2.531877728031712E1  
 1.360146699266504E11   -2.522360404345477E1  -3.011305821529539E1  -1.044992620690985E1  -7.576647853046254E1  -1.049709139895485E1  -1.053219906346570E2  -2.320877641938939E1   1.965082300931460E1  
 1.360268948655257E11   -2.499855020227506E1  -1.618488922777972E1  -1.074126272514328E1  -1.233747299295662E2  -1.078751196867082E1  -1.534573832609341E2  -2.274360291797618E1   1.357182453341286E1  
 1.360391198044010E11   -2.225256413302276E1  -2.926778375265140E1  -1.083109823718603E1  -1.682421863357443E2  -1.088145903022773E1   1.614241364453925E2  -2.340968344127283E1  -4.843181745885641  
 1.360513447432763E11   -2.350846318407342E1  -4.710998856106924E1  -1.051335026311337E1   1.446784974975435E2  -1.056058824211381E1   1.143439596985922E2  -2.671641003141260E1  -2.241797254646346  
 1.360635696821516E11   -2.638219407454017E1  -4.371803524242938E1  -1.049351575718873E1   9.573768473037755E1  -1.053223058670961E1   6.488025671299793E1  -2.649310307493282E1   1.162918466378928E1  
 1.360757946210269E11   -2.399369301432236E1  -2.235648395239420E1  -1.082459858084460E1   4.870312012747000E1  -1.087451183210728E1   1.723382313922973E1  -2.459579583334518E1   1.035374478221709E1  
 1.360880195599022E11   -2.093728386655935E1  -4.329944977540679E1  -1.080245703734062E1   3.960437136040356  -1.083571265397962E1  -2.718391594937004E1  -2.599938595005805E1  -8.634735460475669  
 1.361002444987775E11   -2.175551345632814E1  -6.783901818452915E1  -1.043605096852805E1  -4.336064151612741E1  -1.047087228437621E1  -7.477028769118246E1  -2.896371317370701E1   1.769430104724133E1  
 1.361124694376528E11   -2.489034717000483E1  -8.446866449829960E1  -1.039313043327164E1  -9.243552865606189E1  -1.041929570062981E1  -1.236494692954368E2  -2.511660693233639E1   2.919265012214103E1  
 1.361246943765281E11   -2.875331880249836E1  -6.820543566607120E1  -1.057873645153341E1  -1.391779068296193E2  -1.062407835116571E1  -1.709192986385746E2  -2.269146666771347E1   1.677778716059857E1  
 1.361369193154034E11   -2.743783322214569E1  -6.520873958697590E1  -1.045816732533799E1   1.743684282360237E2  -1.048440393201686E1   1.426886737898952E2  -2.326994924201622E1   2.628690194351008  
 1.361491442542787E11   -2.904877855012751E1  -6.601001287244583E1  -1.026247100626150E1   1.261325153755172E2  -1.029975533017535E1   9.435820734032852E1  -2.382846595728715E1   2.763465279068595  
 1.361613691931540E11   -3.136720075236604E1  -5.384240176127086E1  -1.035992043588517E1   7.754533318750549E1  -1.038880863212921E1   4.509261543665767E1  -2.371982436441220E1   1.110964778591258  
 1.361735941320293E11   -2.776090379643462E1  -3.032149435569286E1  -1.056727585811365E1   3.124011416278723E1  -1.061094247660963E1  -1.413490850069559  -2.327204617503634E1  -4.444077641322414  
 1.361858190709047E11   -2.644571422090436E1  -4.692634360406230E1  -1.039284025534007E1  -1.474897354546190E1  -1.042631878839126E1  -4.775172640776130E1  -2.486854275906775E1  -6.625527232081774  
 1.361980440097800E11   -2.769993748496936E1  -4.973516961501546E1  -1.023797323988539E1  -6.348466649283841E1  -1.026182512891052E1  -9.660938052170222E1  -2.435827790365320E1  -1.178476974866145E-1  
 1.362102689486553E11   -2.846219836970315E1  -3.423906786350491E1  -1.035957937768776E1  -1.119134771792489E2  -1.041530612845650E1  -1.451041690675482E2  -2.405684591764821E1  -1.846661687560385  
 1.362224938875306E11   -2.451190061835826E1  -2.846719003587040E1  -1.051816953901059E1  -1.579328746272144E2  -1.055688847464545E1   1.682257218350980E2  -2.441973744754838E1  -3.417648378214515  
 1.362347188264059E11   -2.305059655108077E1  -4.216132377665187E1  -1.032228615780812E1   1.549311854381188E2  -1.036269284843669E1   1.213085699132265E2  -2.399631560700540E1   1.204571577883350E1  
 1.362469437652812E11   -2.243267584478943E1  -5.326742853864635E1  -1.028724591628724E1   1.063906553304591E2  -1.032955133455124E1   7.276609357332769E1  -2.079862449682886E1   6.372657758612766  
 1.362591687041565E11   -2.277572961840683E1  -5.899356910196566E1  -1.050726851565485E1   5.828894889967245E1  -1.055397090670626E1   2.463537794482091E1  -1.995186738969325E1  -1.097281354788966E1  
 1.362713936430318E11   -2.119400561145510E1  -6.572928328654432E1  -1.060108213953969E1   1.250817874319680E1  -1.067774501586554E1  -2.093021939638870E1  -2.165031015550756E1  -2.924688160701431E1  
 1.362836185819071E11   -2.119551738756715E1  -8.551311217149838E1  -1.036183752476488E1  -3.428562876666085E1  -1.042431493697747E1  -6.831744786210348E1  -2.571684829128473E1  -1.168990807103627E1  
 1.362958435207824E11   -2.251465401105117E1  -1.043148201086992E2  -1.034777734205485E1  -8.310962512177028E1  -1.041084632214257E1  -1.173430199169715E2  -2.162587713139297E1   8.439479421792267  
 1.363080684596577E11   -2.631007119865345E1  -1.159652365135056E2  -1.061229923114053E1  -1.303852585108149E2  -1.069507519159389E1  -1.646467939863423E2  -1.864699367801208E1  -6.115387526695681  
 1.363202933985330E11   -2.804536878158572E1  -1.100361274554813E2  -1.053336075506812E1  -1.757067428309011E2  -1.060662285958610E1   1.501989573752910E2  -1.866639955802347E1  -2.535528621137025E1  
 1.363325183374083E11   -3.359033506325763E1  -1.164695494328184E2  -1.029203178840961E1   1.361088320206250E2  -1.035482271340775E1   1.019539504956984E2  -1.981108480435810E1  -2.997620612872905E1  
 1.363447432762836E11   -3.468424032401700E1  -4.667643020284862E1  -1.035562982342434E1   8.727043144925587E1  -1.042929715527180E1   5.317207304269007E1  -1.959079682589090E1  -3.182165438292678E1  
 1.363569682151589E11   -2.746191678682838E1  -3.963034283533306E1  -1.063626777181993E1   4.009661651904750E1  -1.074243255564670E1   6.212283732328594  -1.906243806024909E1  -3.919256775794207E1  
 1.363691931540342E11   -2.529230521769950E1  -6.917374630074798E1  -1.049396724715546E1  -5.425192327050270  -1.058755325892938E1  -3.914380076912561E1  -2.016040736670463E1  -5.327121708366935E1  
 1.363814180929095E11   -2.913974287173659E1  -7.742724887317142E1  -1.025981382423401E1  -5.365829769474701E1  -1.033807605340034E1  -8.718600947519147E1  -2.211223314777597E1  -4.826526524126095E1  
 1.363936430317848E11   -2.862960488814145E1  -4.416045027304160E1  -1.036995098984098E1  -1.027807660185050E2  -1.045101046274135E1  -1.361546522061105E2  -2.142183916791666E1  -4.383643693370627E1  
 1.364058679706601E11   -2.321129004860666E1  -4.632561245738408E1  -1.065262369019003E1  -1.494643333184744E2  -1.074332746715735E1   1.773213587676217E2  -2.064845490189229E1  -5.105987522001186E1  
 1.364180929095355E11   -2.207645896938038E1  -7.446803848580395E1  -1.043859794501246E1   1.646956841882742E2  -1.055210105064867E1   1.315677024877642E2  -2.272348623614453E1  -6.326316157173862E1  
 1.364303178484108E11   -2.443945701044170E1  -8.607735964503455E1  -1.025110576011085E1   1.163456606597790E2  -1.035816321647147E1   8.303634289209650E1  -2.440740953198136E1  -4.183865544102800E1  
 1.364425427872861E11   -2.587663445772916E1  -7.241440020915286E1  -1.042110676811937E1   6.759392858850939E1  -1.053204674820402E1   3.434819160187379E1  -2.157056000464107E1  -3.694132476637079E1  
 1.364547677261614E11   -2.219430674383855E1  -6.600851792474137E1  -1.065762074809061E1   2.145141222098766E1  -1.075621164359064E1  -1.175959623328545E1  -2.028790464644587E1  -5.156399047960824E1  
 1.364669926650367E11   -2.111116111796568E1  -8.673906379760339E1  -1.041359715126220E1  -2.508005107101486E1  -1.050503003964225E1  -5.751262792245733E1  -2.290778786059277E1  -6.080296009817122E1  
 1.364792176039120E11   -2.198858178363891E1  -9.387302014162901E1  -1.031124670753158E1  -7.438274764268678E1  -1.042201420685782E1  -1.061353607221436E2  -2.253985712980837E1  -3.647610249197239E1  
 1.364914425427873E11   -2.150103791285280E1  -9.241839006414442E1  -1.055148152054102E1  -1.225040523803173E2  -1.066829153967723E1  -1.546512140446965E2  -1.891028098270870E1  -4.301994134889978E1  
 1.365036674816626E11   -1.889236146097289E1  -1.033450971840513E2  -1.069122732418721E1  -1.680113470050611E2  -1.081059325569487E1   1.603491267297975E2  -1.767264141782479E1  -6.698595107334552E1  
 1.365158924205379E11   -1.857979865552156E1  -1.335613356030696E2  -1.043858213143569E1   1.449925666719845E2  -1.052255565674878E1   1.137969421854136E2  -2.000838240736435E1  -9.143020274627631E1  
 1.365281173594132E11   -2.139244776984463E1  -1.626545396553618E2  -1.035990293734150E1   9.602446546421841E1  -1.045713387409632E1   6.544385513578114E1  -2.522611546366081E1  -8.852034100848562E1  
 1.365403422982885E11   -3.026463481591372E1   1.754320156586022E2  -1.061948655332012E1   4.841800546615609E1  -1.070356925471072E1   1.776797476760560E1  -2.427187081412486E1  -5.981480441439229E1  
 1.365525672371638E11   -2.875318291283606E1  -9.176706208599417E1  -1.055648479659979E1   3.017975759572050  -1.065891320243921E1  -2.754953260188018E1  -2.311837562222612E1  -7.351167491904407E1  
 1.365647921760391E11   -2.495124167030004E1  -1.123471732955144E2  -1.027475966017825E1  -4.484888590603525E1  -1.036610048412473E1  -7.513409202388750E1  -2.697921526157517E1  -6.301565741184616E1  
 1.365770171149144E11   -2.483575588144818E1  -1.199573757887759E2  -1.027829667082541E1  -9.383398005428337E1  -1.037448814920145E1  -1.241494641820482E2  -2.284751511219976E1  -3.513555652810292E1  
 1.365892420537897E11   -2.408821764686643E1  -1.164268743768947E2  -1.051700039013605E1  -1.412627468770173E2  -1.062696327308560E1  -1.714530194483851E2  -1.903866286121332E1  -5.101554363962266E1  
 1.366014669926650E11   -2.066860383676061E1  -1.301151532662919E2  -1.046414889543340E1   1.726739017288828E2  -1.056622313692064E1   1.432524130391317E2  -1.871418589873462E1  -7.718536083541562E1  
 1.366136919315403E11   -2.036118320925232E1  -1.608829005586333E2  -1.024319272317751E1   1.247732506114002E2  -1.032625534108837E1   9.583470560341803E1  -2.194795141361644E1  -9.103139909361134E1  
 1.366259168704157E11   -2.250574461326758E1   1.725248086087360E2  -1.030715831288462E1   7.575685003149283E1  -1.037822273743383E1   4.677947485076005E1  -2.391246055549117E1  -6.915546496110225E1  
 1.366381418092910E11   -2.773837391867701E1   1.596913567518155E2  -1.048913601370745E1   2.881056699736826E1  -1.057715502233194E1   3.256113438348509E-1  -2.059031741193151E1  -6.734251009363733E1  
 1.366503667481663E11   -2.702124034812417E1   1.773734914086153E2  -1.031205413826547E1  -1.759430736824404E1  -1.038054370373443E1  -4.644150693884298E1  -2.032045684890792E1  -8.458003030967545E1  
 1.366625916870416E11   -2.582311276702201E1   1.399635549237667E2  -1.020339425086971E1  -6.628892657011093E1  -1.028104668149720E1  -9.550183207141396E1  -2.176092292889559E1  -8.835405725315331E1  
 1.366748166259169E11   -2.759497690336947E1   7.905974606083407E1  -1.046389432998104E1  -1.147913534714332E2  -1.054099292018700E1  -1.438515139529365E2  -2.149788093216898E1  -8.378580810990661E1  
 1.366870415647922E11   -2.724053217106848E1  -1.602744990784095E1  -1.071415388816018E1  -1.601755168054748E2  -1.077853713193704E1   1.708952072874907E2  -1.964242493426327E1  -9.399540410199840E1  
 1.366992665036675E11   -2.615704484559267E1  -9.570578295526119E1  -1.039354538445360E1   1.534740682156818E2  -1.048801307342047E1   1.247084920085763E2  -2.094936759601963E1  -1.201289294572428E2  
 1.367114914425428E11   -2.888127143582958E1  -1.529047655135746E2  -1.021518682364238E1   1.051158822820546E2  -1.029100884452684E1   7.626410203403084E1  -2.666957090717252E1  -1.266790537292275E2  
 1.367237163814181E11   -4.319597977086605E1   1.273825809702834E2  -1.040524233472843E1   5.636577993594460E1  -1.047175467204195E1   2.742271676316849E1  -2.764432502817191E1  -8.366696424120623E1  
 1.367359413202934E11   -2.887802041030119E1  -6.070471662229642E1  -1.055652977327523E1   1.071168585891333E1  -1.061908554205322E1  -1.814400899520491E1  -2.355905298451817E1  -9.167633253352884E1  
 1.367481662591687E11   -2.577283544506921E1  -1.152871755523519E2  -1.031418535355135E1  -3.607258960725018E1  -1.039050622557775E1  -6.522497639344637E1  -2.614613775381577E1  -1.184769232343635E2  
 1.367603911980440E11   -2.799910847068436E1  -1.553050125158264E2  -1.024705458196960E1  -8.523617041975173E1  -1.033412278617170E1  -1.140644847205676E2  -3.385474271409696E1  -6.773411400449625E1  
 1.367726161369193E11   -4.014057012553540E1   1.577447105645121E2  -1.048813319291238E1  -1.327495595533955E2  -1.055920737140167E1  -1.615253476143229E2  -2.417643926885565E1  -4.921557742545494E1  
 1.367848410757946E11   -3.081338108075924E1  -7.597281085932642E1  -1.046420489997263E1  -1.779285810184454E2  -1.053070773135003E1   1.526388065535102E2  -2.211656640989926E1  -7.814898053157656E1  
 1.367970660146699E11   -2.889445604463543E1  -1.143346903914515E2  -1.018720790495054E1   1.346062385240979E2  -1.025810384246612E1   1.050871241115406E2  -2.558739651617762E1  -8.604698224610030E1  
 1.368092909535452E11   -3.103797132219418E1  -1.145609547824047E2  -1.017360634122312E1   8.552235796887015E1  -1.023680729308295E1   5.582514547909625E1  -2.397284442742467E1  -5.481717661234522E1  
 1.368215158924205E11   -2.805834387800837E1  -9.861672876111395E1  -1.042000079982105E1   3.739621341733003E1  -1.049842085983790E1   8.056055134290233  -1.950460243308485E1  -6.322887025043789E1  
 1.368337408312958E11   -2.326528766482102E1  -1.228963741182031E2  -1.049093809258533E1  -8.191940709221711  -1.057171914377126E1  -3.799233559441534E1  -1.782599330667489E1  -8.678260597104867E1  
 1.368459657701711E11   -2.374680807318631E1  -1.672290387260932E2  -1.028820978965892E1  -5.538150971212872E1  -1.038012248408115E1  -8.536282967923084E1  -1.900981556073199E1  -1.052143758831620E2  
 1.368581907090465E11   -3.054950076445561E1   1.438164211776771E2  -1.032550392839356E1  -1.039453883015908E2  -1.039960191715179E1  -1.341081063047290E2  -2.008715662723288E1  -1.061922726528028E2  
 1.368704156479218E11   -3.131127972510856E1  -4.491055373129062E1  -1.057146039253055E1  -1.507924760223521E2  -1.062681676718458E1   1.788281291781103E2  -1.857604274648017E1  -1.116168807249491E2  
 1.368826405867971E11   -2.246918644164759E1  -1.064634344686354E2  -1.047996383243644E1   1.634145646696514E2  -1.056744578542060E1   1.325645707932822E2  -1.810147321267050E1  -1.374592968831866E2  
 1.368948655256724E11   -2.093647570697371E1  -1.520345134032870E2  -1.031380776971769E1   1.161288640412192E2  -1.040178788233262E1   8.489217139362638E1  -2.121318907251107E1  -1.692086021528379E2  
 1.369070904645477E11   -2.260800930883194E1   1.667947873343095E2  -1.035675723920199E1   6.834359779153803E1  -1.042410838482822E1   3.663594976471320E1  -3.193173819163499E1   1.692716162694933E2  
 1.369193154034230E11   -2.974391837985158E1   1.346548074918883E2  -1.041284081219254E1   2.197929469170570E1  -1.049875209750602E1  -9.967647174917820  -2.953766807410106E1  -8.457403414248431E1  
 1.369315403422983E11   -3.306413809902300E1   1.748628985159342E2  -1.019153710587560E1  -2.495191687748067E1  -1.026692243045465E1  -5.727725362770784E1  -2.680705268940784E1  -1.050744419309369E2  
 1.369437652811736E11   -3.342067752825155E1   1.499267821752979E2  -1.011917780679267E1  -7.336680036971424E1  -1.018526801964510E1  -1.058753812244222E2  -2.837209031720205E1  -8.834827324488772E1  
 1.369559902200489E11   -4.588955127562849E1   4.025087228148418E1  -1.027978763138976E1  -1.218382216577652E2  -1.035108890252804E1  -1.545765296925845E2  -2.303943516574462E1  -7.675256730405549E1  
 1.369682151589242E11   -2.831361845391337E1  -8.981418530429150E1  -1.038719753254739E1  -1.679028653328726E2  -1.046672795765406E1   1.591135552439062E2  -1.958485160394592E1  -1.014193309652220E2  
 1.369804400977995E11   -2.408905242301610E1  -1.457535949765391E2  -1.024863765047341E1   1.448439688952282E2  -1.032857798018302E1   1.116551833105817E2  -2.011415012875156E1  -1.310099465911603E2  
 1.369926650366748E11   -2.474845247406453E1   1.630167973030960E2  -1.025313301640933E1   9.652459215354902E1  -1.030889284975846E1   6.340055025678633E1  -2.416826015361357E1  -1.464066051154791E2  
 1.370048899755501E11   -2.981301696929249E1   9.381595159522207E1  -1.046782399481519E1   4.907565839681347E1  -1.053294208305695E1   1.557188200212936E1  -2.586373698941658E1  -1.155068191328333E2  
 1.370171149144254E11   -3.027287016020049E1  -5.566666106535388E1  -1.047644576227766E1   3.528417721608798  -1.054892413987405E1  -3.019134332360638E1  -2.153588761114104E1  -1.252685009188132E2  
 1.370293398533007E11   -2.616409804452852E1  -1.298728036283903E2  -1.028023992472372E1  -4.366321539316800E1  -1.033361025518100E1  -7.778102864193764E1  -2.236293017788629E1  -1.567685692533808E2  
 1.370415647921760E11   -2.756105311525549E1  -1.766668410785712E2  -1.024829466193071E1  -9.183240233736797E1  -1.031375743070695E1  -1.265781749441256E2  -2.976200964548190E1  -1.769881912161306E2  
 1.370537897310514E11   -4.241428545343370E1   1.569799279555126E2  -1.046328316696954E1  -1.392402475388507E2  -1.051840520562700E1  -1.741909290454578E2  -2.877565825600769E1  -9.058996603681700E1  
 1.370660146699267E11   -2.724914068803598E1  -1.105716361249945E2  -1.042368538925491E1   1.750595712845761E2  -1.049248194986256E1   1.399131564472692E2  -2.249398637413389E1  -1.194800261615934E2  
 1.370782396088020E11   -2.380548554805795E1  -1.562970952265714E2  -1.026511857116130E1   1.269577843031331E2  -1.033569241162026E1   9.249796053818369E1  -2.366316659401349E1  -1.546182233400571E2  
 1.370904645476773E11   -2.541581190936926E1   1.632413440799277E2  -1.030800538824155E1   7.862547897144219E1  -1.036400025171161E1   4.413700707656268E1  -3.250945116953970E1  -1.581368440362593E2  
 1.371026894865526E11   -3.737459238105927E1   1.486951800615538E2  -1.043726297391963E1   3.185482886832895E1  -1.049714843123232E1  -2.543102535859481  -2.562837533763397E1  -9.581303444159349E1  
 1.371149144254279E11   -2.723525847090778E1  -1.418693000441542E2  -1.028959794706659E1  -1.482736855884367E1  -1.033821410017446E1  -4.941992567119605E1  -2.148428951044976E1  -1.283521215318167E2  
 1.371271393643032E11   -2.355606946162832E1   1.772278459672735E2  -1.019456110141794E1  -6.297650128137975E1  -1.025798023019100E1  -9.732765872852585E1  -2.249061832218328E1  -1.612690083272996E2  
 1.371393643031785E11   -2.454214233306966E1   1.330304457665729E2  -1.028760771123457E1  -1.113086465087757E2  -1.034661740438757E1  -1.457129894296370E2  -2.873043563495413E1  -1.763535740685711E2  
 1.371515892420538E11   -3.334939810320990E1   7.996518117769489E1  -1.036266697729840E1  -1.575016913948644E2  -1.042986975389608E1   1.676849306955540E2  -2.772084290319859E1  -1.258238298213615E2  
 1.371638141809291E11   -3.264132006811217E1  -1.510077083725018E2  -1.023365574808918E1   1.551587174670364E2  -1.027826636869614E1   1.206771439258313E2  -2.373079436208387E1  -1.495359602736325E2  
 1.371760391198044E11   -2.702493742491998E1   1.598058568104305E2  -1.020012647652302E1   1.067877385238526E2  -1.026691835906864E1   7.218053383004380E1  -2.559236553786477E1   1.767866003540889E2  
 1.371882640586797E11   -2.740860263201679E1   1.010295458887941E2  -1.039275064517551E1   5.870052156813600E1  -1.044857748465090E1   2.458516517218271E1  -3.707065898926391E1   1.735665914037711E2  
 1.372004889975550E11   -2.995855056521164E1  -1.766517906615005  -1.051985838706896E1   1.281725330636464E1  -1.057683516768505E1  -2.140129709321187E1  -2.745568539106464E1  -1.181126664164028E2  
 1.372127139364303E11   -2.741473336602350E1  -9.958425168306741E1  -1.032416342536030E1  -3.389729399126568E1  -1.037175620892936E1  -6.802855771734009E1  -2.470118181052118E1  -1.602256109430006E2  
 1.372249388753056E11   -2.735780693529747E1  -1.526818069800989E2  -1.026135830516712E1  -8.222675847655950E1  -1.031189046179938E1  -1.162593858183180E2  -2.963708123981605E1   1.553394623647980E2  
 1.372371638141809E11   -3.354767570653063E1  -1.646673112902572E2  -1.036327850624114E1  -1.297308514312246E2  -1.043936047028214E1  -1.637271309299743E2  -3.411129774382976E1  -6.593658641916224E1  
 1.372493887530562E11   -2.628437034295003E1  -1.209015597149293E2  -1.033288878157275E1  -1.767978501704683E2  -1.039718350205761E1   1.498904581210092E2  -2.332407019158223E1  -1.160602148308210E2  
 1.372616136919315E11   -2.142774848995907E1  -1.565485144943794E2  -1.025553793274590E1   1.357451358686398E2  -1.031683643734898E1   1.022054955374396E2  -2.153890963708484E1  -1.614788005367412E2  
 1.372738386308069E11   -2.075042034976321E1   1.664901151790088E2  -1.031446600646539E1   8.801295878736023E1  -1.036056922170435E1   5.471869978691695E1  -2.406759740265796E1   1.541556624489456E2  
 1.372860635696822E11   -2.388618588619037E1   1.330107736347131E2  -1.037454164296805E1   4.099588430396261E1  -1.043588345770001E1   7.503856602800472  -3.772529213312234E1   1.200416802550119E2  
 1.372982885085575E11   -2.949949829426351E1   1.579323840341362E2  -1.023292977804147E1  -5.852814409833107  -1.029994355615388E1  -3.885081990326201E1  -2.885296786196136E1  -1.367759151339326E2  
 1.373105134474328E11   -2.358393817275251E1   1.629953461987851E2  -1.014754964706869E1  -5.435794686776997E1  -1.022143986007306E1  -8.721464278261415E1  -2.487041833286813E1  -1.794443093053939E2  
 1.373227383863081E11   -2.160477855318625E1   1.305477729929853E2  -1.027325117106723E1  -1.023061651239532E2  -1.031502759673352E1  -1.348022546179656E2  -2.633719229998211E1   1.305474590428887E2  
 1.373349633251834E11   -2.404471898832318E1   9.037459588553385E1  -1.035970549934862E1  -1.487434990912725E2  -1.041658119922584E1   1.788790111321563E2  -3.618379185955980E1   7.038165651640347E1  
 1.373471882640587E11   -3.601520439294279E1   8.168997376944807E1  -1.015184597691743E1   1.639076867565557E2  -1.021336986641219E1   1.318520305146279E2  -3.734708628284757E1  -1.571079375466965E2  
 1.373594132029340E11   -2.997555863199051E1   1.545500747361514E2  -1.009917083881520E1   1.155296888691862E2  -1.016215679441829E1   8.321089688439575E1  -3.223276865728384E1   1.345042504347695E2  
 1.373716381418093E11   -2.658580818730241E1   1.270048423005623E2  -1.023396475227531E1   6.749172229318702E1  -1.030068592591054E1   3.552730183638003E1  -3.040988808696048E1   4.157229452392510E1  
 1.373838630806846E11   -3.095912541666931E1   1.014616373991262E2  -1.027749549324350E1   2.087041293080376E1  -1.034894634189241E1  -1.082650518651656E1  -2.694998403683677E1  -4.262865994401080E1  
 1.373960880195599E11   -3.008999815675955E1   1.572304380459497E2  -1.013925872957361E1  -2.643524160486885E1  -1.020759925484846E1  -5.831432074987298E1  -2.609471970117895E1  -1.021522173045490E2  
 1.374083129584352E11   -2.456181002003404E1   1.330274244495681E2  -1.016822466143962E1  -7.506257086838828E1  -1.023337807422534E1  -1.065007410317559E2  -2.927776122646810E1  -1.474288107151670E2  
 1.374205378973105E11   -2.384737100216310E1   9.413502878430509E1  -1.033899357675540E1  -1.221330081622884E2  -1.040188361067479E1  -1.543532899563315E2  -3.852852886153032E1  -1.043353320833359E2  
 1.374327628361858E11   -3.012267296757445E1   4.033551571383541E1  -1.032843778020549E1  -1.686257933033942E2  -1.039900866724145E1   1.597048954585520E2  -2.699395676954210E1  -1.058150680979369E2  
 1.374449877750611E11   -3.332091394558911E1  -1.603579016269005E2  -1.018648761002584E1   1.436555295683714E2  -1.026017345224089E1   1.124477292034682E2  -2.486868136377479E1  -1.515798305938265E2  
 1.374572127139364E11   -2.482442757019433E1   1.484791392210993E2  -1.025170337900766E1   9.593305205952089E1  -1.029234159844068E1   6.399867525501965E1  -2.740181722391082E1   1.551221579295960E2  
 1.374694376528117E11   -2.397797251422582E1   1.077911991765267E2  -1.036510345527941E1   4.896833498140291E1  -1.041403146419369E1   1.744594496617865E1  -3.677589372663903E1   4.580734768063491E1  
 1.374816625916870E11   -2.933293834190070E1   9.438403277561908E1  -1.021432340202638E1   2.559737939005549  -1.027987308249366E1  -2.902871950135319E1  -2.949814657367592E1  -8.242000762874470E1  
 1.374938875305624E11   -2.662974485667216E1   1.259586469135272E2  -1.014634272827853E1  -4.593831711845314E1  -1.017588425685301E1  -7.776548016861030E1  -2.686752310302790E1  -1.329510656860046E2  
 1.375061124694377E11   -2.224845941951531E1   1.014702200291308E2  -1.028023398438211E1  -9.417484535691344E1  -1.032842769720557E1  -1.253306831104910E2  -2.997181311120207E1  -1.690434960606309E2  
 1.375183374083130E11   -2.183522841604500E1   5.948350914760800E1  -1.040540678113469E1  -1.401127028489772E2  -1.044660665409668E1  -1.716760928389764E2  -3.291445883485849E1  -1.272803086818575E2  
 1.375305623471883E11   -2.714115920423852E1   1.105751742225091E1  -1.018903421365404E1   1.730507988753523E2  -1.024390091712343E1   1.415130162665301E2  -2.631667291258268E1  -1.486071819353700E2  
 1.375427872860636E11   -4.507041706873685E1   1.696886008634517E2  -1.013920106606041E1   1.243779683662319E2  -1.018393344596539E1   9.300945733235008E1  -2.489178071844374E1   1.702849933888606E2  
 1.375550122249389E11   -2.747307131555685E1   1.066552135135275E2  -1.028011100742070E1   7.645210253901166E1  -1.031841321981096E1   4.534943219635281E1  -2.680806040775285E1   1.187249017952954E2  
 1.375672371638142E11   -2.670755923713914E1   5.378639939226827E1  -1.032162602562609E1   3.027971050488106E1  -1.034767776951339E1  -8.757137295532369E-1  -3.436293912548942E1   3.755357285435182E1  
 1.375794621026895E11   -3.592009806654433E1  -2.994002015513826  -1.011169845503405E1  -1.691710788523689E1  -1.013512602482358E1  -4.827154070450760E1  -3.719036542137427E1  -1.086378607749500E2  
 1.375916870415648E11   -3.420199215615381E1   1.629021287097304E2  -1.011713038336757E1  -6.515651235399773E1  -1.014094525332228E1  -9.683789087943715E1  -3.562440055239402E1   1.598873526702033E2  
 1.376039119804401E11   -2.718408911396519E1   1.156674473495939E2  -1.026646490853312E1  -1.126178968888781E2  -1.029416188717715E1  -1.443616861851533E2  -3.402118130989643E1   3.431312559385786E1  
 1.376161369193154E11   -2.846871023856374E1   7.959037472515738E1  -1.022817353049531E1  -1.591814762947126E2  -1.026201614011945E1   1.692203148916391E2  -2.821457169208956E1  -4.943800705473724E1  
 1.376283618581907E11   -3.151200126757011E1   1.038621956781939E2  -1.010585379779443E1   1.532893794690108E2  -1.012342643516853E1   1.211450000530561E2  -2.630834716465353E1  -9.644296668884572E1  
 1.376405867970660E11   -2.557695656210778E1   1.024835388439617E2  -1.019814583943703E1   1.046543930512190E2  -1.022227735656620E1   7.290687557554317E1  -2.773480857061110E1  -1.275990249502757E2  
 1.376528117359413E11   -2.367271997023087E1   6.717178170514431E1  -1.036889419525824E1   5.809021898682946E1  -1.038885983138746E1   2.579036518604110E1  -2.881346598334888E1  -1.097471049114348E2  
 1.376650366748166E11   -2.790241169129704E1   1.639899978746664E1  -1.025834368292411E1   1.136248239523061E1  -1.029364474459976E1  -2.063190648936431E1  -2.328030801366694E1  -1.222376056812005E2  
 1.376772616136919E11   -3.551657330133563E1  -1.675815301955498E2  -1.018646756215990E1  -3.672229965284459E1  -1.021289727814014E1  -6.866528793064569E1  -2.101337014364088E1  -1.530978666705252E2  
 1.376894865525672E11   -2.371492743564077E1   1.290089001421614E2  -1.031099251730558E1  -8.419760799675781E1  -1.035258098390091E1  -1.169959417280383E2  -2.126049691261567E1   1.725301073278961E2  
 1.377017114914425E11   -2.116908545378959E1   8.517162625316836E1  -1.040723852910196E1  -1.302227585986837E2  -1.044851357868604E1  -1.628690114515634E2  -2.496568849645234E1   1.508050123774475E2  
 1.377139364303178E11   -2.393624068558984E1   5.276438971209600E1  -1.021136532933082E1  -1.772939657866875E2  -1.023244045304529E1   1.499951431227912E2  -2.661911713194024E1   1.630586664355720E2  
 1.377261613691932E11   -2.862591537626360E1   7.860047027270126E1  -1.019265586036155E1   1.338519248411205E2  -1.022722754436836E1   1.014016570819077E2  -2.404995557194899E1   1.608060164813023E2  
 1.377383863080685E11   -2.166207583265366E1   8.879129502154345E1  -1.044553507724112E1   8.656637925453299E1  -1.047430695322922E1   5.328645733749040E1  -2.247578217256670E1   1.344295465606885E2  
 1.377506112469438E11   -1.849450221370482E1   5.672272489056844E1  -1.055461815865814E1   4.133970579669766E1  -1.058177972398374E1   7.914598628692123  -2.467451723899371E1   1.108900229772814E2  
 1.377628361858191E11   -1.933146635194450E1   2.312345067328592E1  -1.024278065670739E1  -4.934642668559451  -1.027084267915262E1  -3.869873673818072E1  -2.575668566052148E1   1.090282513597572E2  
 1.377750611246944E11   -2.312410729402111E1   3.872715788794094  -1.011609992846404E1  -5.380173538727023E1  -1.016464009037494E1  -8.730951477011267E1  -2.520319362021302E1   9.625760442617661E1  
 1.377872860635697E11   -2.560000965389946E1   2.237992876407284E1  -1.026310130956521E1  -1.012077137173098E2  -1.029539543925359E1  -1.350589578898503E2  -2.520410270574676E1   6.985036489949984E1  
 1.377995110024450E11   -2.274352761794446E1   1.412000047178938E1  -1.023210042892734E1  -1.475866589981420E2  -1.027750683716208E1   1.788927864407182E2  -2.954415129135941E1   3.619037808015334E1  
 1.378117359413203E11   -2.386165820551851E1  -1.108361647534399E1  -1.002558135079682E1   1.647770776994726E2  -1.004411248178714E1   1.312900480179376E2  -3.835612262884106E1   6.771771459541147E1  
 1.378239608801956E11   -2.953626841747952E1  -2.017134594752833E1  -1.003846139381506E1   1.163132100262814E2  -1.006906075197868E1   8.220405375549932E1  -3.163168058173835E1   9.264898842866084E1  
 1.378361858190709E11   -2.869775663781330E1   2.778236055790358E1  -1.021792441501169E1   6.860301097966188E1  -1.023559766706798E1   3.505057689566701E1  -2.877462235351646E1   5.613377061855981E1  
 1.378484107579462E11   -2.430528635022554E1   7.574797460860421  -1.015102266940887E1   2.275799206189259E1  -1.017826934858838E1  -1.097434540157870E1  -3.311238046360675E1   1.411048043715496E1  
 1.378606356968215E11   -2.551146116699684E1  -1.993842618644744E1  -9.963004978817406  -2.484176564470594E1  -1.000107964503618E1  -5.904326655934526E1  -4.682911191950763E1   6.248372806603852E1  
 1.378728606356968E11   -3.074604175167632E1  -2.168435522292862E1  -9.999149506300805  -7.357479952669308E1  -1.005114130773170E1  -1.075215243398460E2  -3.387911457647815E1   9.002088096713109E1  
 1.378850855745721E11   -2.814583006789932E1   6.710018007382351  -1.012750334536568E1  -1.205073333087612E2  -1.017393515351603E1  -1.549110049045642E2  -3.098702205089714E1   4.535714092298908E1  
 1.378973105134475E11   -2.573858282709258E1  -2.013918735623636E1  -9.986529702473183  -1.673877391279572E2  -1.002871997734569E1   1.584381901808530E2  -3.682381266553126E1  -4.016738339469489  
 1.379095354523228E11   -2.816967019167517E1  -5.089460111403216E1  -9.914805675253493   1.444772911023255E2  -9.952568535316745   1.101051509484068E2  -4.324084182431859E1   1.531749127172373E2  
 1.379217603911981E11   -4.077995948954519E1  -4.685363394109481E1  -1.005039744461026E1   9.614223915563964E1  -1.010204340319733E1   6.163868690166818E1  -3.118146346751779E1   1.051125024622052E2  
 1.379339853300734E11   -3.026132170933098E1   1.961464869051859E1  -1.013416464293564E1   4.956232991151393E1  -1.017650127967854E1   1.513916642073654E1  -2.960918766207177E1   6.250870294940178E1  
 1.379462102689487E11   -2.724532331840056E1  -1.838841778525582E1  -9.974791069208173   2.269410255790894  -1.002212305086687E1  -3.235408687257181E1  -3.223543047339641E1   5.071503251037662E1  
 1.379584352078240E11   -2.921127937311023E1  -5.679058856180950E1  -9.989245295922880  -4.602482287934678E1  -1.002748498357914E1  -8.117458550103933E1  -3.071553188422756E1   6.364054707103573E1  
 1.379706601466993E11   -3.970864174483615E1  -9.543595919277384E1  -1.019142055169864E1  -9.414839754682356E1  -1.025697730265470E1  -1.288407229297549E2  -2.580918970106921E1   4.738472644030365E1  
 1.379828850855746E11   -3.950389446727501E1   9.728911780302749  -1.027449846400858E1  -1.400934171353412E2  -1.030256713836779E1  -1.748971322586221E2  -2.418991536392659E1   7.130346298336661  
 1.379951100244499E11   -5.249149785804102E1   1.309690694072282E1  -1.005593124294714E1   1.724049856053330E2  -1.011743764463882E1   1.375846575972597E2  -2.556066419131218E1  -3.167207160392584E1  
 1.380073349633252E11   -3.231531488351963E1   9.405111536181734E1  -1.011193628589400E1   1.238395965519519E2  -1.017644723824414E1   8.870919262482236E1  -2.906083394552985E1  -7.388310868421392E1  
 1.380195599022005E11   -2.453930683066687E1   5.654081011254330E1  -1.037762847253402E1   7.615574170426449E1  -1.042416879713363E1   4.135770012115795E1  -3.745872938709307E1  -1.093867177039676E2  
 1.380317848410758E11   -2.179227136256213E1   1.000956989859789E1  -1.040702242154320E1   3.071957066744519E1  -1.047508151422874E1  -4.212611378625181  -3.751319305642582E1  -1.267719891643190E2  
 1.380440097799511E11   -2.321347457036814E1  -3.844150637170893E1  -1.020916313970990E1  -1.712749726977407E1  -1.027601653847310E1  -5.174411426795211E1  -3.189516037578193E1   1.562163318688410E2  
 1.380562347188264E11   -2.935832746041020E1  -1.008620656171541E2  -1.038542390169670E1  -6.563388891456442E1  -1.043132831173952E1  -1.003470264242513E2  -2.784781226002692E1   1.007785493542851E2  
 1.380684596577017E11   -3.095841784507247E1   1.028095505566275E2  -1.065049179223373E1  -1.115984262595633E2  -1.070584469480118E1  -1.462783468034506E2  -2.713108987645392E1   5.286738609417359E1  
 1.380806845965770E11   -2.499666869694575E1   3.591467620622439E1  -1.038460791693682E1  -1.568327313009333E2  -1.045120448360379E1   1.689916373779890E2  -3.059820515918204E1   4.077659787929613E1  
 1.380929095354523E11   -2.476923020288319E1  -6.693348528171902E-1  -1.013153520033035E1   1.546038678203338E2  -1.019086859470241E1   1.200652914112755E2  -2.817029067270655E1   4.380248667320075E1  
 1.381051344743276E11   -2.764978179952054E1  -1.572942698020909E1  -1.024021529112319E1   1.058593142030279E2  -1.030981970717728E1   7.134566890419758E1  -2.577021264355298E1   2.904301236946721E1  
 1.381173594132029E11   -2.630720729013390E1  -4.268156872207102  -1.044362027827051E1   5.978503834099937E1  -1.051569619835298E1   2.544967132818973E1  -2.409024475655528E1  -2.178938230524151  
 1.381295843520783E11   -2.457409071447092E1  -3.012575032743822E1  -1.017310636279369E1   1.356840354199280E1  -1.025845311378177E1  -2.074280963454687E1  -2.663192160574169E1  -4.069582412650936E1  
 1.381418092909536E11   -2.708431494460825E1  -6.116661081765313E1  -1.001390994198192E1  -3.519063463140662E1  -1.006774919808254E1  -6.934100414342252E1  -3.395497126604420E1  -6.750736835885671E1  
 1.381540342298289E11   -3.801184453789571E1  -7.418927082217752E1  -1.015633494187036E1  -8.382710372557165E1  -1.022244353640206E1  -1.173363457738267E2  -3.965616034262725E1   4.827566653472512E1  
 1.381662591687042E11   -3.130090815278059E1   8.682939017584383  -1.024280383083416E1  -1.298649270541201E2  -1.029034502924113E1  -1.639392063809720E2  -3.125919120192829E1   1.518974182949610E1  
 1.381784841075795E11   -2.846985354989769E1  -2.246526644225195E1  -1.000049785961009E1  -1.774492250408247E2  -1.006649018699749E1   1.490927717287224E2  -3.255222753778472E1   8.551795842738859E-1  
 1.381907090464548E11   -3.094921819831838E1  -4.880450421257152E1  -9.970042548063235   1.335206431680644E2  -1.005949467642799E1   1.001312882005036E2  -3.334827929139868E1   1.456584049302826E1  
 1.382029339853301E11   -4.114420872064780E1   3.789232130060287  -1.023720360736109E1   8.541291245234379E1  -1.031439353426244E1   5.214453241695882E1  -2.862808976471150E1   2.632298513440277E1  
 1.382151589242054E11   -2.928067715239394E1   1.350588356259501E1  -1.034282322533307E1   3.987771071162092E1  -1.040704795933207E1   6.923420766888444  -2.558352916677085E1  -4.632893061546746  
 1.382273838630807E11   -2.976655762149222E1  -7.834728899538463  -1.005992383513270E1  -7.526273283652743  -1.014606372195054E1  -4.000176210071739E1  -2.692871730061425E1  -3.112445090807504E1  
 1.382396088019560E11   -3.087060814076174E1   1.464436142814177E1  -1.005630682087645E1  -5.633759927721859E1  -1.013240843997461E1  -8.880519627365702E1  -2.961751297043733E1  -5.326683347176138E1  
 1.382518337408313E11   -2.450269026341063E1   2.249380733252708E1  -1.029024473222233E1  -1.036711782509127E2  -1.035900452467217E1  -1.356949839506312E2  -3.501230511798141E1  -4.949196563082541E1  
 1.382640586797066E11   -2.096162077856230E1  -6.672133856075321  -1.022353330220930E1  -1.494574697973282E2  -1.027710529919818E1   1.786895691307281E2  -3.861676844682884E1  -7.003983114512570E1  
 1.382762836185819E11   -2.075865666130624E1  -3.557766801197426E1  -9.970864190564946   1.624383543521857E2  -1.002265509998465E1   1.310321551622884E2  -3.719050203293015E1   9.591253583188561E1  
 1.382885085574572E11   -2.280673948378979E1  -6.044261743754538E1  -9.981906535354122   1.137661566697142E2  -1.004137438797406E1   8.210657539333472E1  -2.865071614261086E1   5.761150091216933E1  
 1.383007334963325E11   -2.674352393423410E1  -6.041877748951450E1  -1.013659547312487E1   6.669313202999652E1  -1.019236340912242E1   3.486948795199410E1  -2.556210793872751E1   2.861553562073716E1  
 1.383129584352078E11   -2.612290385398169E1  -5.317414082784872E1  -9.998612402175670   1.980871981340899E1  -1.003916431712083E1  -1.146909108402425E1  -2.625371118528312E1   8.610371464424073  
 1.383251833740831E11   -2.603914528085408E1  -6.056702299181597E1  -9.878207134194222  -2.872157173219765E1  -9.942627127639165  -6.008186937920613E1  -2.652181667314850E1   1.023438800283096E1  
 1.383374083129584E11   -2.821111768303470E1  -7.347708374836634E1  -1.006145369715224E1  -7.789926183608004E1  -1.011874768371293E1  -1.084889836204704E2  -2.480503941230631E1   1.123288625121203E1  
 1.383496332518337E11   -3.054453987998996E1  -3.720515463341521E1  -1.032888236869603E1  -1.236779633170114E2  -1.038662982887117E1  -1.546891528301905E2  -2.240046524847210E1  -2.748597587314054  
 1.383618581907091E11   -2.587673517224637E1  -4.168988713310644E1  -1.010707825026839E1  -1.696080113235662E2  -1.015450569679470E1   1.598635693611425E2  -2.329756735112398E1  -1.862201368101517E1  
 1.383740831295844E11   -2.500181560156523E1  -5.324124699112305E1  -9.943745227516203   1.416397525383243E2  -9.986784367098709   1.109047720079649E2  -2.312851853549480E1  -1.612178304898207E1  
 1.383863080684597E11   -2.469672601444014E1  -6.178221442597119E1  -1.006853737702119E1   9.344004136772161E1  -1.011578025274645E1   6.267394705060255E1  -2.124271832481498E1  -2.263181909099861E1  
 1.383985330073350E11   -2.330006624550944E1  -6.963325655306932E1  -1.012934569847874E1   4.711104427599565E1  -1.017423395225651E1   1.656838749189999E1  -1.987948955464738E1  -4.330899903919615E1  
 1.384107579462103E11   -2.275221391964507E1  -9.701110366674419E1  -9.942025621464097  -5.256429178726146E-1  -9.987529510271287  -3.123960403478784E1  -2.111373529022601E1  -6.597885704092498E1  
 1.384229828850856E11   -2.547859694999251E1  -1.271868457174438E2  -9.953951940531963  -4.962603610432270E1  -9.999126307642495  -8.047032699511024E1  -2.396653161401942E1  -7.799989823085286E1  
 1.384352078239609E11   -3.448977833401536E1  -1.548347382297752E2  -1.027519627596976E1  -9.706700534596203E1  -1.029414349694085E1  -1.279009292936814E2  -2.615955391117470E1  -6.431181774650410E1  
 1.384474327628362E11   -3.208104712067244E1  -5.209667806919953E1  -1.029505033530997E1  -1.426291232507459E2  -1.032769254091655E1  -1.732830131656253E2  -2.350963207391339E1  -6.959657736898988E1  
 1.384596577017115E11   -2.836081570302444E1  -9.839269002321974E1  -1.005038320543881E1   1.695374300000872E2  -1.006180768462938E1   1.387746574205649E2  -2.448855551521258E1  -9.186857545799599E1  
 1.384718826405868E11   -3.214077830062845E1  -1.625827817301631E2  -1.014806621662648E1   1.206181191773257E2  -1.018124270181778E1   8.967843695537569E1  -2.754829840742779E1  -1.086195427254967E2  
 1.384841075794621E11   -2.973049503579021E1   6.318516281346186E1  -1.054776394525010E1   7.373203756893253E1  -1.057690037227860E1   4.284913210569611E1  -3.324436075032712E1  -9.137627897623503E1  
 1.384963325183374E11   -2.370257662634984E1  -5.993308653185149  -1.044899142996782E1   2.929297021593196E1  -1.047225384814020E1  -1.510733994387534  -3.036338040281821E1  -9.902758664138776E1  
 1.385085574572127E11   -2.240001964124399E1  -4.582507948848510E1  -1.010867637652969E1  -1.844989988427102E1  -1.014312878787791E1  -4.914918552183745E1  -4.130273215871584E1   1.735987785885397E2  
 1.385207823960880E11   -2.325083697380996E1  -7.452825081825718E1  -1.012090017562414E1  -6.707194680290183E1  -1.016416920325936E1  -9.852065934496196E1  -2.975915177039004E1   2.931407543730942E1  
 1.385330073349633E11   -2.560058743850592E1  -7.934614123120281E1  -1.034447683599225E1  -1.138597100015414E2  -1.038887404183983E1  -1.453860103669876E2  -2.378480810506757E1  -1.376903891864209E1  
 1.385452322738386E11   -2.360598328658347E1  -8.712523020525661E1  -1.014615582464165E1  -1.600846460659282E2  -1.016770333119910E1   1.686538987431076E2  -2.336872762970149E1  -5.281857013793819E1  
 1.385574572127139E11   -2.404411829374528E1  -1.148911581266299E2  -9.960151395422685   1.511984369953324E2  -1.000424027421603E1   1.201195842133272E2  -2.640952237826256E1  -7.182413247387400E1  
 1.385696821515892E11   -2.746973510943374E1  -1.463054705677798E2  -1.017194832322147E1   1.028264666206470E2  -1.020849801955767E1   7.067579690865861E1  -2.966248412175922E1  -5.590307378921691E1  
 1.385819070904645E11   -5.174298625257338E1  -9.799069074822137E1  -1.045735250538047E1   5.724252349419380E1  -1.048775708285588E1   2.475853480781233E1  -2.512451064862472E1  -4.684975565946291E1  
 1.385941320293398E11   -2.933343041946856E1  -7.248331103039996E1  -1.017859000023076E1   1.165296484851898E1  -1.019241855468947E1  -2.070439006156027E1  -2.458819473527817E1  -7.516346826871973E1  
 1.386063569682152E11   -2.939468486114352E1  -1.089181128636344E2  -9.967489531772328  -3.726667068668266E1  -9.987481709733249  -6.971286650397644E1  -2.750592746538451E1  -8.482257607812565E1  
 1.386185819070905E11   -3.754289387779821E1  -1.330063618103499E2  -1.012903209805678E1  -8.563856838310736E1  -1.014436005284539E1  -1.181222289338013E2  -2.902940168659464E1  -7.190478070504668E1  
 1.386308068459658E11   -3.213034189801108E1  -3.139645779392527E1  -1.024592728183575E1  -1.314341532458033E2  -1.027209687509798E1  -1.643234288932580E2  -2.618867667123302E1  -7.356332826176053E1  
 1.386430317848411E11   -2.731732207950785E1  -6.973253853104318E1  -9.981058560018399  -1.786179396586653E2  -1.002499469851225E1   1.481620823719528E2  -2.803870604945866E1  -9.770529236981130E1  
 1.386552567237164E11   -2.824243294946128E1  -9.467639558628154E1  -9.927182694961267   1.328297913071189E2  -9.962103436712875   9.929932050942159E1  -3.326424354790141E1  -7.676517690875117E1  
 1.386674816625917E11   -3.260643891125380E1  -9.419139523335689E1  -1.017963345658269E1   8.476846761514358E1  -1.019615309964750E1   5.132170151421254E1  -2.801247459628975E1  -4.753452868564889E1  
 1.386797066014670E11   -2.763924421213573E1  -7.171718081140219E1  -1.018388505734585E1   3.953274297230556E1  -1.020852704381248E1   5.372772893108847  -2.397712926400363E1  -7.410233950999033E1  
 1.386919315403423E11   -2.557317380485332E1  -1.085965816831430E2  -9.940815111046899  -8.433688114745609  -9.988863509802828  -4.250039013153842E1  -2.509128602692056E1  -1.057093590127675E2  
 1.387041564792176E11   -2.860551756403069E1  -1.540989349336219E2  -9.996449905562260  -5.716255979492465E1  -1.002866787570405E1  -9.186822175994823E1  -2.869181338920489E1  -1.263190930331296E2  
 1.387163814180929E11   -3.608217463753055E1   9.008182907213931E1  -1.035333215077862E1  -1.048031367237934E2  -1.039825113709116E1  -1.394400067818837E2  -3.804664842883060E1  -1.222678798704053E2  
 1.387286063569682E11   -2.789083123902986E1  -2.119367632993329E1  -1.033735744261449E1  -1.493992250381919E2  -1.037619782764264E1   1.756382528277583E2  -3.287170554021919E1  -8.186263288262789E1  
 1.387408312958435E11   -2.653738695501466E1  -5.718248252952664E1  -1.003430830518727E1   1.628937358335305E2  -1.005994569122041E1   1.283230268598391E2  -3.902057360303726E1  -9.584243422786489E1  
 1.387530562347188E11   -2.713591834561491E1  -6.965450649779889E1  -1.001452023315102E1   1.143277182259523E2  -1.004320412718484E1   7.924682832482972E1  -3.302389232209625E1  -2.478812840480086E1  
 1.387652811735941E11   -2.615972833061408E1  -6.054807867168734E1  -1.024872384772702E1   6.665150914066237E1  -1.026616047858112E1   3.225398741881336E1  -2.698477848872678E1  -4.927386097955234E1  
 1.387775061124694E11   -2.215408313688327E1  -7.678985260917345E1  -1.014416655110768E1   2.018955424471944E1  -1.020093373061602E1  -1.436950821202168E1  -2.616980585182651E1  -9.399059152581380E1  
 1.387897310513447E11   -2.154736286467942E1  -1.055135774623901E2  -1.003912659304148E1  -2.781363904303269E1  -1.008048086335377E1  -6.293498322530396E1  -3.273769384205407E1  -1.538964846066398E2  
 1.388019559902200E11   -2.333971395462009E1  -1.363775226374623E2  -1.027666499509099E1  -7.641931469506554E1  -1.032490574833474E1  -1.109710743679148E2  -3.286442654804959E1   4.228538230912564E1  
 1.388141809290953E11   -3.230341415570696E1  -1.456912336011378E2  -1.050098108550339E1  -1.212900685309100E2  -1.053307619904668E1  -1.561019199518711E2  -2.571786009986739E1  -2.033597890631656E1  
 1.388264058679706E11   -2.969018416385099E1  -9.590352623476390E1  -1.013873887134809E1  -1.673189558315349E2  -1.017579674915702E1   1.576171213088546E2  -2.757519946949876E1  -5.476326291446559E1  
 1.388386308068460E11   -2.893222144369583E1  -9.639502249203819E1  -9.952394098106311   1.436048066361598E2  -9.982842663212347   1.087478037428395E2  -2.920164092714237E1  -3.072767318719681E1  
 1.388508557457213E11   -2.726671459381831E1  -8.569143945709870E1  -1.009906021680361E1   9.489974421640278E1  -1.015186341042320E1   6.011760676147158E1  -2.397009034478359E1  -2.813951208708580E1  
 1.388630806845966E11   -2.325050592194673E1  -8.589083952627760E1  -1.030216956197267E1   4.848595073753038E1  -1.033869709716489E1   1.390847999845959E1  -2.047041132859082E1  -5.200989926096091E1  
 1.388753056234719E11   -2.056904626247272E1  -1.146451760498177E2  -1.008156073599079E1   1.788934220619368  -1.013301410153223E1  -3.268826908394392E1  -2.045876439935492E1  -8.235877535944221E1  
 1.388875305623472E11   -2.192785702901537E1  -1.450985506428340E2  -9.972024992796802  -4.663992401035443E1  -1.000247475266342E1  -8.120695498363425E1  -2.294579340251167E1  -9.801812086339479E1  
 1.388997555012225E11   -2.741144088221232E1  -1.608304591874556E2  -1.016719760321090E1  -9.485894112076601E1  -1.019902220007592E1  -1.291519529347378E2  -2.405126431018379E1  -8.961136234659645E1  
 1.389119804400978E11   -2.728385375451693E1  -1.055683036108296E2  -1.019378944255465E1  -1.410140402184115E2  -1.023376891079559E1  -1.750692719784188E2  -2.126157905978486E1  -9.929367472928675E1  
 1.389242053789731E11   -2.182715744629832E1  -1.275922725688932E2  -1.000371789239275E1   1.713128346895254E2  -1.004022099623379E1   1.373038950017208E2  -2.135917227186374E1  -1.280672811832229E2  
 1.389364303178484E11   -2.164821222097774E1  -1.619635439955097E2  -1.006530306825246E1   1.227945481502410E2  -1.010696227850219E1   8.857042938535530E1  -2.453962486205965E1  -1.538262442730600E2  
 1.389486552567237E11   -2.663692509296240E1   1.584629821075632E2  -1.033625115422310E1   7.552323386362376E1  -1.038144051240372E1   4.205691772324925E1  -3.078392019764133E1  -1.446692271915561E2  
 1.389608801955990E11   -3.565811093737884E1  -1.013697143133117E2  -1.017355392356024E1   3.015571829177129E1  -1.022977855264987E1  -3.532997943064614  -2.666443470700924E1  -1.370147731447744E2  
 1.389731051344743E11   -2.570504219626308E1  -1.168663571063215E2  -9.954109004697461  -1.801634905611714E1  -1.000670144344687E1  -5.186957518365637E1  -2.692994583500602E1   1.793421363615400E2  
 1.389853300733496E11   -2.380783781438556E1  -1.402602687501977E2  -1.003888837741999E1  -6.722497765351066E1  -1.006997168191622E1  -1.005523469903559E2  -3.161264850836866E1   1.068368198602430E2  
 1.389975550122250E11   -2.586896634711606E1  -1.529599350859185E2  -1.026967966990519E1  -1.142950946419587E2  -1.031691716460056E1  -1.472827307879593E2  -3.009254512145662E1  -6.320545740892520  
 1.390097799511003E11   -2.370856872793215E1  -1.390049770454590E2  -1.011657724645208E1  -1.602896709213571E2  -1.015959051129947E1   1.667995579461970E2  -2.779599072491742E1  -7.813536044212505E1  
 1.390220048899756E11   -2.100402353762294E1  -1.603702198042311E2  -9.994941075412259   1.507184405913656E2  -1.001914775748039E1   1.183031759209942E2  -3.135255467137764E1  -1.262345501087936E2  
 1.390342298288509E11   -2.057129493132293E1   1.713649693732964E2  -1.023355003820360E1   1.022617873791360E2  -1.025825941841502E1   7.013718132550613E1  -4.882111617726740E1  -3.518535957214598E1  
 1.390464547677262E11   -2.364664929041275E1   1.371505313742882E2  -1.042679819362964E1   5.679763796308318E1  -1.045381910605228E1   2.504888555823526E1  -2.945385039521364E1  -5.912280527825071E1  
 1.390586797066015E11   -3.005738364736615E1   1.515311055676143E2  -1.009524153905440E1   1.022274693872759E1  -1.013528929792505E1  -2.182839195348464E1  -2.977571754228653E1  -1.097371635701126E2  
 1.390709046454768E11   -2.690883358347328E1   1.601014400852385E2  -9.980221164144624  -3.878293707117665E1  -1.002298283325877E1  -7.075208572552560E1  -4.035989077471344E1  -1.402178166664321E2  
 1.390831295843521E11   -2.557235221792350E1   1.301841549479346E2  -1.022698468035461E1  -8.742951583513356E1  -1.027812052356951E1  -1.189994393624047E2  -3.543518532696752E1  -1.064421934016169E1  
 1.390953545232274E11   -2.883058659424076E1   7.043463131924875E1  -1.042966602580307E1  -1.327234755742861E2  -1.048838874670300E1  -1.641988351227893E2  -2.790691476298568E1  -5.571448281221288E1  
 1.391075794621027E11   -3.795294941997857E1  -3.096789274343401E1  -1.011385242772175E1  -1.793783473643074E2  -1.016417007928132E1   1.496565527594391E2  -3.147791093573714E1  -1.030955402201587E2  
 1.391198044009780E11   -3.721331716605116E1  -1.074127608308133E2  -1.000924106681659E1   1.316015162924822E2  -1.004874776621328E1   1.009616197571673E2  -3.617792286956743E1   9.182635566899502E-1  
 1.391320293398533E11   -3.585070611800892E1  -9.529166257153179E1  -1.017375319739360E1   8.377490943420699E1  -1.023662124588282E1   5.313731476299388E1  -2.467310716460510E1  -2.769814543546758E1  
 1.391442542787286E11   -2.641111304388025E1  -9.737074115206639E1  -1.016021144475259E1   3.760041152615157E1  -1.021595769300510E1   7.099338967852473  -2.155955302207856E1  -6.993132555912548E1  
 1.391564792176039E11   -2.231672678344466E1  -1.400121888998369E2  -9.985732343527275  -1.055545083903023E1  -1.004512091857302E1  -4.074326452944332E1  -2.256078623888927E1  -1.092341375595730E2  
 1.391687041564792E11   -2.216172476761630E1   1.793309774670746E2  -1.000532793292570E1  -5.892001426791511E1  -1.006056467549613E1  -8.934406737068937E1  -2.706371086356662E1  -1.401543412523734E2  
 1.391809290953545E11   -2.625152389006390E1   1.373636511303410E2  -1.025097729764794E1  -1.062771580620576E2  -1.029156096415391E1  -1.363946668482917E2  -3.663338988230147E1  -1.066224651427627E2  
 1.391931540342298E11   -3.765113029926236E1  -1.541650430511156E2  -1.014923477366758E1  -1.521387993518135E2  -1.020570998100811E1   1.774669321076405E2  -2.870063420044358E1  -9.786161653114181E1  
 1.392053789731051E11   -2.661160984571387E1  -1.602559979099111E2  -9.951735246378709   1.595228346454785E2  -9.996130452999903   1.295142381997494E2  -3.063780246381374E1  -1.399940731063045E2  
 1.392176039119804E11   -2.528552052994558E1   1.677370004222068E2  -1.002466791957702E1   1.108701513605749E2  -1.007096350716943E1   8.049051698038191E1  -4.719908285438861E1   9.148907450260998E1  
 1.392298288508557E11   -2.988494246593389E1   1.370365571000047E2  -1.030427990277778E1   6.394659361416333E1  -1.035139510339293E1   3.370927836280579E1  -2.832835741548198E1  -2.436466229737778E1  
 1.392420537897311E11   -3.000990931903021E1  -1.571348596708396E2  -1.017157238347060E1   1.758660571074323E1  -1.022821456133682E1  -1.243994190880301E1  -2.515986863164818E1  -7.246534494925696E1  
 1.392542787286064E11   -2.373460373335267E1   1.732349255513069E2  -1.006599217354382E1  -3.087047347401507E1  -1.011698149437896E1  -6.083719904427494E1  -2.763728306373459E1  -1.031480872448809E2  
 1.392665036674817E11   -2.270758774053979E1   1.304811894765238E2  -1.030464174937200E1  -7.936142543264261E1  -1.033982037486925E1  -1.093263022854093E2  -3.252591512273566E1  -8.325635998826790E1  
 1.392787286063570E11   -2.573716663460118E1   6.819011958877172E1  -1.055451699782643E1  -1.246594195947365E2  -1.060860548725345E1  -1.545476155472797E2  -2.581349734967362E1  -7.577022339824583E1  
 1.392909535452323E11   -3.173867361525715E1  -5.038739764332733E1  -1.027200925719337E1  -1.707195743298374E2  -1.032102000028907E1   1.593682245614712E2  -2.460825036267233E1  -1.208671809523998E2  
 1.393031784841076E11   -2.729020954460547E1  -1.410345697337131E2  -1.011587706857060E1   1.409787311765063E2  -1.015456901081751E1   1.107419852630790E2  -2.972313853838432E1   1.785832033284689E2  
 1.393154034229829E11   -2.630139327554141E1   1.722029481722448E2  -1.024955376121724E1   9.293738595312739E1  -1.030568140998476E1   6.250846159750489E1  -3.125175284380378E1   3.735160955338359E1  
 1.393276283618582E11   -3.227082056796976E1   1.627863326490229E2  -1.029498772335488E1   4.699461828412172E1  -1.033865259738220E1   1.644162755564716E1  -2.484486062733512E1  -3.216083592758050E1  
 1.393398533007335E11   -2.647836504365022E1  -1.728733477383145E2  -1.008783948521477E1  -5.434517815312235E-1  -1.011669833450283E1  -3.098418974270011E1  -2.460389782144668E1  -6.713836200396098E1  
 1.393520782396088E11   -2.375943329130605E1   1.535569815096593E2  -1.008566290629127E1  -4.940208275524999E1  -1.011741510948385E1  -7.978651825916764E1  -2.637236048139747E1  -7.073290925331347E1  
 1.393643031784841E11   -2.519033716456384E1   1.123322785142137E2  -1.032135303518762E1  -9.668217712168367E1  -1.036422677639421E1  -1.273381347137403E2  -2.335692299337248E1  -6.172834881655227E1  
 1.393765281173594E11   -4.274099338761888E1   4.091423321053663E1  -1.033360272919211E1  -1.429955111936452E2  -1.035453940240918E1  -1.732715848760586E2  -2.025219096120185E1  -8.621150427700962E1  
 1.393887530562347E11   -2.561771047296671E1  -1.623975032965522E2  -1.019733766341384E1   1.694305618722342E2  -1.023068709887845E1   1.389617309569184E2  -2.078510202950575E1  -1.151305682885262E2  
 1.394009779951100E11   -2.102355712320284E1   1.496731254418952E2  -1.031841599760800E1   1.216506105639472E2  -1.035348574144138E1   9.072485373226692E1  -2.442939198224356E1  -1.301490568185380E2  
 1.394132029339853E11   -2.109131963065494E1   9.659260281104977E1  -1.048461331169201E1   7.588079191461351E1  -1.050289842454608E1   4.490065977637508E1  -2.446608906205802E1  -1.070251884273403E2  
 1.394254278728606E11   -2.740322627462133E1   3.731599583010722E1  -1.022636361257516E1   2.971266033622974E1  -1.024888068165203E1  -1.963221633065731  -2.123618227362623E1  -1.275818892893847E2  
 1.394376528117359E11   -3.675324412147740E1  -1.373444234208794E2  -1.005807208426608E1  -1.855274393768239E1  -1.008965410540729E1  -4.984551954784271E1  -2.205052354554666E1  -1.611810858128241E2  
 1.394498777506112E11   -2.651991965079980E1   1.482895478843918E2  -1.010972183058847E1  -6.710956734646871E1  -1.015843164747663E1  -9.853320250939227E1  -2.719901835199663E1   1.606406398297933E2  
 1.394621026894865E11   -2.586666950388467E1   9.125729612537934E1  -1.031866781042394E1  -1.139027179041981E2  -1.035354123090256E1  -1.452411399373036E2  -4.380595479551842E1  -3.668152335954548E1  
 1.394743276283619E11   -3.654324242660032E1   2.576513244578819E1  -1.016463369520592E1  -1.598581003523691E2  -1.019975497928652E1   1.682905191963458E2  -2.855021849497522E1  -1.014495498952273E2  
 1.394865525672372E11   -3.261151787348884E1   1.745868900005113E2  -1.003729295890969E1   1.518600724861429E2  -1.006942048623182E1   1.197872510781366E2  -3.076721899029984E1  -1.331492039294252E2  
 1.394987775061125E11   -2.742681872133347E1   1.231158431061089E2  -1.016087579205926E1   1.037778252287895E2  -1.018949847727886E1   7.151750729127770E1  -3.318594045233700E1  -6.197919641844013E1  
 1.395110024449878E11   -3.005657596604387E1   5.457994534752722E1  -1.023084035758172E1   5.760358395149459E1  -1.026331646213464E1   2.520425643766544E1  -2.322895786377427E1  -7.846676648701710E1  
 1.395232273838631E11   -3.279183939682460E1  -1.084589271644745E2  -1.010793960042056E1   1.028021159950441E1  -1.012660737210057E1  -2.219787522444655E1  -2.080583538643614E1  -1.142751268480420E2  
 1.395354523227384E11   -2.441527953194019E1   1.726668805371285E2  -1.008223764404249E1  -3.796574904539367E1  -1.010974954833945E1  -7.049564083193808E1  -2.169351733005948E1  -1.448312818307255E2  
 1.395476772616137E11   -2.190310802487402E1   1.155780149428053E2  -1.020120447509974E1  -8.535264217230098E1  -1.022947615004986E1  -1.176484946338569E2  -2.550363117360678E1  -1.568333047469493E2  
 1.395599022004890E11   -2.400131624540234E1   5.419568757182808E1  -1.019731451115822E1  -1.314093585664595E2  -1.022103753955207E1  -1.641179071223807E2  -2.479812638627826E1  -1.405138944395720E2  
 1.395721271393643E11   -3.161739079166273E1  -2.691782612114469E1  -1.005554575001601E1  -1.788893292327809E2  -1.008871520892592E1   1.477808666603364E2  -2.266411121062601E1  -1.650655224060751E2  
 1.395843520782396E11   -3.106509728121604E1  -1.621660474762688E2  -1.007399027969878E1   1.330650450535646E2  -1.010809234352333E1   9.998767644148560E1  -2.469701538212249E1   1.543223827007379E2  
 1.395965770171149E11   -2.763668233496007E1   1.257120557971572E2  -1.022012581964589E1   8.549816232961463E1  -1.025416840427076E1   5.280304879752356E1  -3.574855334467490E1   7.866938889646258E1  
 1.396088019559902E11   -3.442721260698775E1   5.581841882995871E1  -1.010750797285166E1   3.962391788602134E1  -1.015222127002421E1   6.430634864601201  -2.880973178690718E1  -8.767119199879168E1  
 1.396210268948655E11   -3.244202812058894E1  -1.581549513256092E2  -9.977095632775068  -8.338142554381822  -1.000197544377547E1  -4.158627277638610E1  -2.524378995294769E1  -1.324371396954887E2  
 1.396332518337408E11   -2.510021668685537E1   1.465755083182490E2  -9.990504511895967  -5.642221345478762E1  -1.002727213281131E1  -8.974448883327570E1  -2.733079050582477E1  -1.611787412577104E2  
 1.396454767726162E11   -2.437072114887268E1   8.931978626062633E1  -1.007527479594323E1  -1.035651675051608E2  -1.010128337104652E1  -1.368164143998386E2  -3.038263362359529E1  -1.340389692591805E2  
 1.396577017114915E11   -2.977685244519776E1   1.414970221548217E1  -1.000987738914233E1  -1.506931913122167E2  -1.004056893863304E1   1.756690037055053E2  -2.427284177868969E1  -1.369552180238555E2  
 1.396699266503668E11   -3.053071404362168E1  -1.256325320498652E2  -9.995370492770345   1.612862358669965E2  -1.002833296168348E1   1.279833636067252E2  -2.263356715570436E1  -1.697844983420044E2  
 1.396821515892421E11   -2.470961097059946E1   1.638397233344200E2  -1.009010473830284E1   1.132726218771687E2  -1.013540776689519E1   8.056372108272150E1  -2.513935945321499E1   1.529784197144881E2  
 1.396943765281174E11   -2.467147099902773E1   1.103308950549266E2  -1.015841262883636E1   6.675807227759243E1  -1.018917414887260E1   3.390849977222133E1  -3.847128482432760E1   1.538343841510771E2  
 1.397066014669927E11   -3.430089490323793E1   8.183023983430884E1  -1.000518303034031E1   1.937024686074669E1  -1.003725828363157E1  -1.325330476451611E1  -2.861346243881393E1  -1.422890295647072E2  
 1.397188264058680E11   -2.816485711766815E1   1.643968651514999E2  -1.002395555615348E1  -2.858316637192593E1  -1.005660251718702E1  -6.148415136130581E1  -2.550912438147984E1  -1.742444614512460E2  
 1.397310513447433E11   -2.210392387535850E1   1.265353114866220E2  -1.020610130861785E1  -7.673684317004185E1  -1.022993114731218E1  -1.088586293352306E2  -2.857800144558021E1   1.535423439683174E2  
 1.397432762836186E11   -2.180920693536655E1   7.828436831777981E1  -1.018878649873126E1  -1.222001249673678E2  -1.023081142350052E1  -1.548244352074109E2  -3.305522534076118E1  -1.549250395406576E2  
 1.397555012224939E11   -2.821176259802271E1   3.445527748067068E1  -1.001404085239493E1  -1.699152581416828E2  -1.004766639216012E1   1.578064303818218E2  -2.569646304166905E1  -1.655341015266675E2  
 1.397677261613692E11   -3.585867178494789E1   1.436551276010868E2  -1.002798514758937E1   1.417272102689371E2  -1.004585116361577E1   1.095117087812607E2  -2.438098663446666E1   1.602096877253458E2  
 1.397799511002445E11   -2.475266016586543E1   1.074180734215604E2  -1.014453040679079E1   9.447944931287972E1  -1.020199923029812E1   6.282197431730192E1  -2.861406117807860E1   1.234480773705352E2  
 1.397921760391198E11   -2.461469471717561E1   5.441590111173100E1  -1.004727371498441E1   4.821247040394677E1  -1.008129910431197E1   1.643151144154950E1  -3.573527011291830E1  -1.628548240227838E2  
 1.398044009779951E11   -3.230462681944222E1  -1.045091789802106E1  -9.930220100720858   6.001662526855530E-1  -9.981918213482343  -3.185316332907156E1  -2.582271598458339E1  -1.750538812362958E2  
 1.398166259168704E11   -3.105261635034583E1  -1.784027025163190E2  -9.979509379211503  -4.778645787971065E1  -1.001247349291282E1  -8.002775506091716E1  -2.349112510095995E1   1.471746909612617E2  
 1.398288508557457E11   -2.505542421368249E1   1.220836775225415E2  -1.006280330861817E1  -9.466548874603339E1  -1.009138769002179E1  -1.268606286380583E2  -2.566637358951166E1   1.069602903342944E2  
 1.398410757946210E11   -2.695098107096690E1   8.063815987526866E1  -9.911876142658697  -1.414932226210410E2  -9.959633737219626  -1.739568125516317E2  -3.437902533444194E1   9.008482011648179E1  
 1.398533007334963E11   -3.336235895265432E1   1.075807971468721E2  -9.860800183857231   1.699979726590755E2  -9.904681192779323   1.378671768465036E2  -3.321227620820407E1   1.488486394629063E2  
 1.398655256723716E11   -2.508262606122491E1   1.263720073741305E2  -1.001877202102416E1   1.217001876656906E2  -1.006093122560712E1   8.996622431426840E1  -2.921089612952495E1   1.181187414875037E2  
 1.398777506112470E11   -2.159464934690899E1   9.168015579605903E1  -1.013467044327344E1   7.557865730896586E1  -1.017588157594593E1   4.379875830658841E1  -3.369919929261269E1   5.660980417036557E1  
 1.398899755501223E11   -2.400046979151887E1   5.650138791707203E1  -9.951644507425172   2.864429354549786E1  -9.978210064308037  -2.756749137222422  -3.753513685998964E1  -1.119926548943346E2  
 1.399022004889976E11   -2.990085089531322E1   7.928984187060378E1  -9.891828089170380  -1.977299989561698E1  -9.927752953948355  -5.143398629783671E1  -2.932471828740957E1  -1.698837812330657E2  
 1.399144254278729E11   -2.283677206609097E1   9.691922498292963E1  -1.003070226241644E1  -6.737637144593583E1  -1.004674998398550E1  -9.894810809720855E1  -2.802413757150107E1   1.523242850346166E2  
 1.399266503667482E11   -1.960337751933331E1   6.272909246740048E1  -1.003521720065489E1  -1.140197672443512E2  -1.006682820518674E1  -1.452768439043251E2  -3.069886414525627E1   1.500796459906817E2  
 1.399388753056235E11   -2.072770535401347E1   2.704480039647033E1  -9.875699806489457  -1.617229330176158E2  -9.920838300267947   1.672268357686186E2  -2.633868858897871E1   1.553357728552061E2  
 1.399511002444988E11   -2.589246971522281E1   6.795971717100646  -9.924673194685147   1.497809536692735E2  -9.946765225565875   1.186391073768696E2  -2.345854111119642E1   1.283988894916039E2  
 1.399633251833741E11   -2.708537155519898E1   4.514390859491913E1  -1.007955946568867E1   1.023553741617123E2  -1.011733778536053E1   7.184733589007496E1  -2.359291237952246E1   9.055626360667634E1  
 1.399755501222494E11   -2.239388902145126E1   2.330758526079437E1  -1.002281106044760E1   5.639871352677186E1  -1.006983867035480E1   2.563707518506407E1  -2.975575369469487E1   5.370832306921363E1  
 1.399877750611247E11   -2.298910674865434E1  -1.802828578462911E1  -9.890224545281859   8.482070588768254  -9.922380789899469  -2.203920994030621E1  -3.364167075872317E1   1.411043523742220E2  
 1.400000000000000E11   -2.791177630210443E1  -6.472242853604600E1  -9.932560360340167  -3.975661063043012E1  -9.975101097971065  -7.024775691868368E1  -2.486644727396876E1   1.193442483692760E2  
 1.400122249388753E11   -4.655695183891825E1   1.594070549874189E2  -1.001876948814152E1  -8.633188773393184E1  -1.005231128948294E1  -1.169006974467045E2  -2.337607621888010E1   7.869159385568769E1  
 1.400244498777506E11   -3.325389626270174E1   1.745851833191600E1  -9.878955197288418  -1.337264834493208E2  -9.917188228390250  -1.638076374168188E2  -2.727256213297266E1   4.348063285696378E1  
 1.400366748166259E11   -3.332816003564531E1  -6.583880786487877E1  -9.829419904303604   1.779013179947282E2  -9.885986243811940   1.471934947698595E2  -3.709032928778296E1   8.106750956703732E1  
 1.400488997555012E11   -2.909988003830624E1  -1.687628666683802E2  -1.000431471595969E1   1.298768237306332E2  -1.003808776406120E1   9.988674066521463E1  -2.674769880484658E1   1.065407140440916E2  
 1.400611246943765E11   -2.428779569316952E1   1.258967245703573E2  -1.010081190975367E1   8.361846568340701E1  -1.012828838144552E1   5.391278452065474E1  -2.396080651044311E1   7.434689788054098E1  
 1.400733496332518E11   -2.368485303223371E1   8.131715867012413E1  -9.861943867450108   3.687355514810074E1  -9.893827815117191   7.090959549280708  -2.469665309363244E1   5.667773243299049E1  
 1.400855745721271E11   -2.553414826209436E1   5.573597942761477E1  -9.765030200279156  -1.153525403984407E1  -9.798127815957992  -4.169047834728642E1  -2.497332739429248E1   4.932691570054691E1  
 1.400977995110024E11   -2.686902307774104E1   5.566836055886981E1  -9.888900796851972  -5.944955698662562E1  -9.937485088375814  -8.991088202679643E1  -2.345735094664112E1   4.083987816086135E1  
 1.401100244498778E11   -2.499635731051765E1   4.262970180134946E1  -9.927728469099616  -1.060588026735337E2  -9.985127262825611  -1.361479199585801E2  -2.267870522316517E1   1.326937649938891E1  
 1.401222493887531E11   -2.720334941463500E1   1.135024910430453E1  -9.795741357022006  -1.538337865549491E2  -9.828946647298755   1.761418935407118E2  -2.526028126919887E1  -1.563191934057258E1  
 1.401344743276284E11   -3.918373463478445E1   1.690123706214999E1  -9.834778697028618   1.577267463678213E2  -9.882217784541060   1.277269807626177E2  -3.175676947494992E1  -2.910301008599013E1  
 1.401466992665037E11   -2.778334512264033E1   8.986667642558336E1  -1.002504163201606E1   1.104041896323183E2  -1.007994328399662E1   8.036778632304350E1  -3.216688349710577E1   2.230302730951366E1  
 1.401589242053790E11   -2.312335100133183E1   5.144586795661278E1  -9.978662545682916   6.436691351110450E1  -1.003943732149855E1   3.422736794884737E1  -2.919768381267501E1  -1.891109071297275  
 1.401711491442543E11   -2.413694236165352E1   1.490504676170219E1  -9.832384456802412   1.622278488764317E1  -9.866190014818889  -1.405083151587190E1  -3.456939155631180E1  -1.652468505625977E1  
 1.401833740831296E11   -3.015712903347695E1  -2.276726821716749  -9.912595505465211  -3.210517826067402E1  -9.965755748583611  -6.269528303081062E1  -3.394499065674457E1   5.579771137489590E1  
 1.401955990220049E11   -2.932848992961462E1   4.767587660118475E1  -1.011392931689681E1  -7.898836394283794E1  -1.016156109223993E1  -1.088189087453178E2  -2.591972941219045E1   3.603178997010340E1  
 1.402078239608802E11   -2.505431850293100E1   1.794435570477764E1  -9.975477282360989  -1.250960249797683E2  -1.003800783626872E1  -1.555391713282447E2  -2.469284702144017E1  -2.784604191159191  
 1.402200488997555E11   -2.731452933673625E1  -2.079091177967381E1  -9.858119470555694  -1.733962279219839E2  -9.903655864610986   1.561476141548297E2  -2.820853126348737E1  -2.667806303707621E1  
 1.402322738386308E11   -4.195607164497942E1  -4.711433767508770E1  -1.003293785630624E1   1.380656435148383E2  -1.009370841672642E1   1.076317200209930E2  -3.175675450392813E1   4.556184903038838  
 1.402444987775061E11   -2.905365949108866E1   5.779040267077245E1  -1.023250832512628E1   9.228421454689611E1  -1.027848141332325E1   6.151207862713082E1  -2.480017264698812E1   1.945318732439730  
 1.402567237163814E11   -2.561898360809742E1   1.481512214665967E-1  -1.003037821646149E1   4.594166580679622E1  -1.006847492925470E1   1.543525822670921E1  -2.329436832291216E1  -3.753656465756087E1  
 1.402689486552567E11   -2.747300472963610E1  -6.800840176207431E1  -9.959984169080473  -2.733359444236629  -1.000497059864383E1  -3.368085415043272E1  -2.558363176448295E1  -7.806430501873793E1  
 1.402811735941320E11   -2.773971877704765E1  -1.640141844813728E2  -1.015363310841109E1  -5.084758510841365E1  -1.020352340853360E1  -8.130744770452299E1  -3.543808112174063E1  -1.286193995777624E2  
 1.402933985330073E11   -2.519390869627490E1   1.212499478595615E2  -1.024401353352704E1  -9.603278742765043E1  -1.030001187490900E1  -1.272469510346722E2  -3.302916297591766E1   1.659069650999525E1  
 1.403056234718826E11   -2.659794737570295E1   8.377436275010631E1  -9.970226685609624  -1.430096976217735E2  -1.002927653725920E1  -1.741251382339864E2  -2.795708881417094E1  -1.829281506464879E1  
 1.403178484107579E11   -2.747107120117686E1   9.922433857410155E1  -9.927081938309144   1.678595242630501E2  -9.991830525386535   1.365042380708034E2  -2.669561965418448E1  -4.724626889300187E1  
 1.403300733496332E11   -2.133538851275763E1   9.626443030435590E1  -1.023258503289111E1   1.200772136713716E2  -1.027440397454509E1   8.879307442964692E1  -2.837900071856423E1  -6.979367954691539E1  
 1.403422982885085E11   -1.786871181781172E1   6.282228270956474E1  -1.033414613841391E1   7.497854708542299E1  -1.039302443602476E1   4.363407262249062E1  -2.767378619936408E1  -7.859860882614925E1  
 1.403545232273839E11   -1.809612704501610E1   2.659434074460659E1  -1.004577782269494E1   2.843625770948953E1  -1.009274843091011E1  -3.239024853403295  -2.868497770987284E1  -1.188909235669018E2  
 1.403667481662592E11   -2.158117241448602E1   4.335159069666827E-2  -9.977038199485596  -2.036504120959880E1  -1.001645728438330E1  -5.161588982453100E1  -3.709702314663979E1  -1.649920460919882E2  
 1.403789731051345E11   -2.601738407987935E1   1.682964765498273E1  -1.007497587997578E1  -6.720681214378068E1  -1.011645280210695E1  -9.921099160996575E1  -3.520848401932571E1  -2.078298324349595E1  
 1.403911980440098E11   -2.238021246913601E1   1.878907053675481E1  -9.934947235053906  -1.142560721796057E2  -9.996340813266501  -1.459692865244289E2  -2.798642586065752E1  -7.916646678519470E1  
 1.404034229828851E11   -2.266181208622486E1  -1.238162764936957E1  -9.834050114444265  -1.628519972362733E2  -9.894739743882759   1.650305489631297E2  -2.651899989856089E1  -1.251508212669254E2  
 1.404156479217604E11   -3.102079173573629E1  -5.444248310124097E1  -1.004190623508275E1   1.489643151714906E2  -1.008044188391475E1   1.168086556450248E2  -2.666690559817461E1  -1.688032094496988E2  
 1.404278728606357E11   -2.688717563157713E1   9.418377272034664E1  -1.031451822491711E1   1.030244970203318E2  -1.034175682220488E1   7.036190837999909E1  -2.993929108071747E1   1.579592340115169E2  
 1.404400977995110E11   -2.008682906457898E1   5.187560011981226E1  -1.008535838736340E1   5.743634976452201E1  -1.013179257784108E1   2.485572708306528E1  -2.844923929775289E1   1.645092874099402E2  
 1.404523227383863E11   -1.893872325967003E1   1.675890487516996E1  -9.892099376116121   9.054164539148697  -9.944010902210623  -2.308903173108753E1  -2.473886827709982E1   1.316567300709917E2  
 1.404645476772616E11   -2.137129025952167E1  -8.020794814948125  -9.979760532082191  -3.891247915278487E1  -1.005247263026882E1  -7.155552158933472E1  -2.335736352047791E1   9.387409757400258E1  
 1.404767726161369E11   -2.420316398649396E1   1.683410804915908  -1.004895419200462E1  -8.500041081320356E1  -1.011855702491330E1  -1.177673319430185E2  -2.419333797560617E1   5.179356747146395E1  
 1.404889975550122E11   -2.237208839333744E1   2.542378394938776  -9.798012318903634  -1.324796654382760E2  -9.869146567066050  -1.647555506675811E2  -2.956129681005723E1   2.488058084646873E1  
 1.405012224938875E11   -2.213534074710228E1  -1.226632545709871E1  -9.714672161399580   1.787106968862765E2  -9.789276051686924   1.461275801189130E2  -3.342841109127049E1   5.521862656220878E1  
 1.405134474327629E11   -2.524019088839935E1  -2.120156529310291E1  -9.889937333533251   1.306559278180116E2  -9.952179979416746   9.790614950070443E1  -2.810311980259275E1   6.328612109853529E1  
 1.405256723716382E11   -2.505806181786269E1   3.735422321900499  -9.974309977256246   8.418711952869337E1  -1.005236306144679E1   5.172105764134668E1  -2.624839125242927E1   3.014787638288395E1  
 1.405378973105135E11   -2.264490462013763E1  -4.378675853847653  -9.797512819313928   3.697293093000378E1  -9.854655880910471   4.724160287656319  -3.072971654553579E1   5.276849945992328  
 1.405501222493888E11   -2.288409128257641E1  -1.944217072656792E1  -9.787635153866706  -1.179094017050744E1  -9.854115501517551  -4.409514917165664E1  -3.496258467004210E1   4.616957462509677E1  
 1.405623471882641E11   -2.548183391229664E1  -1.805402046262585E1  -1.000730356999417E1  -5.925244156372921E1  -1.008342058107256E1  -9.184440471319657E1  -2.751655013659327E1   5.686902994310026E1  
 1.405745721271394E11   -2.337738181708525E1  -3.207274716583437  -1.002189933168705E1  -1.051899081814149E2  -1.008909317572939E1  -1.374728582580889E2  -2.560821255280095E1   2.410724144296820E1  
 1.405867970660147E11   -2.172832627813066E1  -1.561832797188542E1  -9.818941503744275  -1.530246758410614E2  -9.884201647177173   1.750475264916985E2  -2.845813468021188E1   1.014349088757621E1  
 1.405990220048900E11   -2.195164082211559E1  -3.020224291324189E1  -9.837525459560505   1.582476360830425E2  -9.911002498843828   1.263991936801553E2  -2.832657085869329E1   2.537733381347837E1  
 1.406112469437653E11   -2.391273660993614E1  -3.123807739201137E1  -1.004176193568927E1   1.110305786452603E2  -1.010307283398477E1   7.904682743240099E1  -2.463134233108814E1   1.285370884093028E1  
 1.406234718826406E11   -2.191250788640747E1  -2.708282477037593E1  -9.931570458708677   6.439653274262470E1  -1.001241060350193E1   3.261196034821654E1  -2.470622741985901E1  -2.561061993899951E1  
 1.406356968215159E11   -2.074759416140780E1  -4.810457608117002E1  -9.856393437063021   1.619608962398576E1  -9.935992054757115  -1.622247243649811E1  -3.015658788132891E1  -6.731752746806060E1  
 1.406479217603912E11   -2.264380884803302E1  -8.007805691350185E1  -1.010190356680995E1  -3.210364005658276E1  -1.018683466165543E1  -6.417127596175941E1  -4.080634992114470E1   1.168580356071368E2  
 1.406601466992665E11   -3.427432182505427E1  -1.067609643890283E2  -1.035577113744201E1  -7.715333576028681E1  -1.042436909550052E1  -1.094185612274815E2  -2.906738770158509E1   3.914577557740044E1  
 1.406723716381418E11   -2.915082278127878E1   1.241501771152552  -1.002688846943990E1  -1.234929426587597E2  -1.009307050075224E1  -1.550970914710314E2  -3.321394872300566E1   2.927224394007211  
 1.406845965770171E11   -2.446088102973123E1  -2.314582527323968E1  -9.838008228597586  -1.725562046491179E2  -9.924847728558678   1.561182184426620E2  -3.431814489221839E1   7.533372033681488E1  
 1.406968215158924E11   -2.563387176837588E1  -5.483904334818283E1  -1.006877816167353E1   1.387876547153258E2  -1.014682069334050E1   1.072547225822141E2  -2.558965378921526E1   7.068927299118468E1  
 1.407090464547677E11   -3.342062500509601E1  -3.764110431308477E1  -1.032560728496740E1   9.301151419656605E1  -1.038198054990107E1   6.182296241152182E1  -2.203464578436891E1   3.873790318927005E1  
 1.407212713936430E11   -2.831904390781698E1  -6.844532500313963  -1.000524435702914E1   4.727795108910491E1  -1.009913485582965E1   1.572591703202040E1  -2.323013286760592E1   1.472383642684700E1  
 1.407334963325183E11   -2.654329448073802E1  -1.223396049477542E1  -9.861917626522498  -2.197310593199441  -9.945326852719655  -3.324605236808222E1  -2.410009561843399E1   1.606046239650953E1  
 1.407457212713937E11   -2.739666409197906E1  -9.443461772432505  -1.013099780747872E1  -5.004804533999327E1  -1.019685024265437E1  -8.139812278461220E1  -2.216286985804613E1   1.262392712540204E1  
 1.407579462102690E11   -2.346131278327511E1   6.136880480143010  -1.018879131412795E1  -9.545168923650383E1  -1.023585028910829E1  -1.262852404320847E2  -2.111787420598140E1  -1.435121804471718E1  
 1.407701711491443E11   -2.061769327541927E1  -1.344362452535556E1  -9.878022483895641  -1.424999795541838E2  -9.946919401236936  -1.737766279473247E2  -2.562802467993928E1  -4.301486795723985E1  
 1.407823960880196E11   -2.029334301555097E1  -3.416517916993066E1  -9.834656418352166   1.682303919523966E2  -9.912871483977785   1.374244691046220E2  -3.408956486899256E1   1.266071933979376E1  
 1.407946210268949E11   -2.256901675619520E1  -4.789883591029297E1  -1.007631581513367E1   1.207314789555773E2  -1.013873908911475E1   9.020563673725143E1  -2.396051580065834E1   2.986101447708913E1  
 1.408068459657702E11   -2.346882531794440E1  -3.972074946312291E1  -9.970941061929345   7.501508002744954E1  -1.002298269885013E1   4.473211890989876E1  -2.178124208569191E1  -5.011580252364740E-1  
 1.408190709046455E11   -2.355188968899217E1  -3.903390389292138E1  -9.720191430389175   2.708114321787830E1  -9.778169825842685  -3.492376615646712  -2.392863751697969E1  -1.442623704670779E1  
 1.408312958435208E11   -2.323989646863704E1  -3.650628355824462E1  -9.777107315196391  -2.224785492662963E1  -9.827922267038630  -5.246222150168670E1  -2.473692772042222E1  -1.124239470735674  
 1.408435207823961E11   -2.266348284726050E1  -3.000159401395126E1  -1.005016625149850E1  -6.901017514989592E1  -1.010185800918703E1  -9.969472946532272E1  -2.129933746554400E1  -6.665422206167992E-1  
 1.408557457212714E11   -2.000679432419357E1  -3.505595657911645E1  -9.908506658319618  -1.150126156768247E2  -9.954882833996720  -1.452344964575850E2  -2.035600974419687E1  -2.735015999901511E1  
 1.408679706601467E11   -1.943583649680821E1  -4.924656707556205E1  -9.708583017738498  -1.634202759981434E2  -9.748421549158865   1.660683335209403E2  -2.395409131814870E1  -4.772595720015271E1  
 1.408801955990220E11   -1.977343326738507E1  -5.951283789467151E1  -9.805084246166480   1.476519758826214E2  -9.862305597632657   1.173839561414112E2  -2.866775172240170E1  -1.533532404837346E1  
 1.408924205378973E11   -2.054195180463739E1  -6.034751192346764E1  -1.000048246850762E1   1.013167793981299E2  -1.005677256147094E1   7.077769480638963E1  -2.235405829429055E1  -2.711503307696468  
 1.409046454767726E11   -1.927755224978194E1  -6.499003322956014E1  -9.795373552714437   5.444814660416166E1  -9.856674255428249   2.451646022391000E1  -2.071560869873885E1  -3.011476559961027E1  
 1.409168704156479E11   -1.941743623942191E1  -7.708501021190504E1  -9.706129325802520   5.837008987400934  -9.749409277715596  -2.427999348782884E1  -2.321589888160973E1  -4.949124198846869E1  
 1.409290953545232E11   -2.026191995533117E1  -8.696709164172003E1  -9.891680858035818  -4.317026179121696E1  -9.942863455946373  -7.293239298181952E1  -2.757007184758620E1  -2.975140704729720E1  
 1.409413202933985E11   -2.210753648882107E1  -8.543624484000684E1  -1.009965464336823E1  -8.920065573396484E1  -1.014601196358186E1  -1.188610084673636E2  -2.242201833126250E1  -1.542720154426607E1  
 1.409535452322738E11   -2.042060497892765E1  -8.313890664089136E1  -9.903386601949627  -1.357636023515061E2  -9.943559470251142  -1.655443411696597E2  -2.115585231187850E1  -4.073686780497960E1  
 1.409657701711491E11   -1.980688405926951E1  -9.837480267714628E1  -9.884778465546642   1.752957789672160E2  -9.924205434555457   1.455121638257338E2  -2.394937671457837E1  -5.866326207484995E1  
 1.409779951100244E11   -2.117931562258320E1  -1.209365441116006E2  -1.023992575034290E1   1.278294885028012E2  -1.028453532883647E1   9.794900549100673E1  -2.747065823822999E1  -3.242217580589706E1  
 1.409902200488998E11   -2.729555255991845E1  -1.238383033080295E2  -1.020172648157874E1   8.280696843404591E1  -1.025326576572109E1   5.321760175015704E1  -2.348137420781155E1  -3.300968133592378E1  
 1.410024449877751E11   -2.715243938121730E1  -9.071598830999663E1  -9.865003811031071   3.536074673179424E1  -9.916998639052762   5.256450182882137  -2.527406119027586E1  -4.673137807750122E1  
 1.410146699266504E11   -2.509489611874864E1  -8.875296776557063E1  -9.939356799274400  -1.410473262465516E1  -9.974163372751374  -4.401108701770781E1  -2.742730925428499E1  -2.436935195582327E1  
 1.410268948655257E11   -2.647872921144856E1  -9.936029871958358E1  -1.033488722290651E1  -6.089982434370709E1  -1.035959848118964E1  -9.060797569889648E1  -2.224719079426629E1  -8.889785674044301  
 1.410391198044010E11   -2.560443300567131E1  -6.926593706708333E1  -1.017034274458588E1  -1.053418136345978E2  -1.019232806717727E1  -1.355964344337060E2  -1.953626324725942E1  -3.603802801349768E1  
 1.410513447432763E11   -2.210285065508066E1  -8.194601156850682E1  -9.839145660807645  -1.537833877154334E2  -9.869077954132138   1.760973912907711E2  -2.136697651520513E1  -5.870779968284104E1  
 1.410635696821516E11   -2.161623643762153E1  -9.866075721285840E1  -9.945151209410430   1.568777100675710E2  -9.980878970080672   1.268384292811065E2  -2.561201268581441E1  -5.383223216443098E1  
 1.410757946210269E11   -2.373936017354565E1  -1.121916366842141E2  -1.028796565885821E1   1.103612432649562E2  -1.030569183562435E1   8.063032628363953E1  -2.247694481570769E1  -2.500311272260014E1  
 1.410880195599022E11   -2.321183928594289E1  -9.582087815055222E1  -1.003766708935726E1   6.523432875950449E1  -1.006717445659097E1   3.499009568764543E1  -1.948975883246732E1  -4.661126525398349E1  
 1.411002444987775E11   -2.091740095428942E1  -1.126662551266229E2  -9.796781315671723   1.678897304543453E1  -9.827775869474230  -1.378835676845007E1  -2.014610218633891E1  -6.838590714054483E1  
 1.411124694376528E11   -2.131021924024381E1  -1.386522861303427E2  -9.945963729779688  -3.199885427608419E1  -9.991890085599964  -6.279162972948132E1  -2.316089831775826E1  -8.285734021009579E1  
 1.411246943765281E11   -2.558366239771434E1  -1.697114052210692E2  -1.017340725565600E1  -7.818996670371531E1  -1.021894155758811E1  -1.087760572007734E2  -2.517861598461624E1  -6.632399271466562E1  
 1.411369193154034E11   -3.541054937196688E1  -1.437977699298203E2  -9.874813024702135  -1.242969206318488E2  -9.925401487720786  -1.551096471563088E2  -2.518743162333580E1  -7.785970455557268E1  
 1.411491442542787E11   -3.239002716532130E1  -9.855968766945301E1  -9.748539446820976  -1.732745977586707E2  -9.783065487330138   1.557798971836177E2  -3.115109128143170E1  -7.118926360976741E1  
 1.411613691931540E11   -3.035159459242037E1  -1.004857307759965E2  -9.977568084676978   1.380658542891698E2  -1.001061952707748E1   1.071217148134003E2  -2.834985207149593E1  -1.122038224139444E1  
 1.411735941320293E11   -3.123372445972706E1  -7.229000233886849E1  -1.014776336886338E1   9.280630581720111E1  -1.018321523736673E1   6.168654125714696E1  -2.176462686949402E1  -2.259711222599737E1  
 1.411858190709046E11   -2.570512981389327E1  -7.969973136662270E1  -9.831778324584931   4.601728821484956E1  -9.860669149115122   1.513013844568380E1  -2.135772425888164E1  -4.803658711678858E1  
 1.411980440097799E11   -2.619617022297014E1  -9.602020662960008E1  -9.716861489217095  -3.034847142168073  -9.761749893673692  -3.404035226096827E1  -2.361997344136742E1  -5.218700239490191E1  
 1.412102689486552E11   -2.764801096715262E1  -8.930479559234996E1  -9.937414706302445  -5.143616663535743E1  -9.986354123278254  -8.306045632008834E1  -2.321460260090001E1  -3.276882957839122E1  
 1.412224938875306E11   -2.379924520060948E1  -6.997005315376936E1  -1.004779644219730E1  -9.661183525021104E1  -1.009559408181691E1  -1.283560207950604E2  -1.914137913595171E1  -3.823998854845728E1  
 1.412347188264059E11   -2.019634004110178E1  -9.450694069624139E1  -9.808664120272244  -1.443875703961350E2  -9.844592202029288  -1.752997816716192E2  -1.831189266134268E1  -6.043433423568729E1  
 1.412469437652812E11   -2.044483143108660E1  -1.211966437893085E2  -9.771807192865166   1.670532987004480E2  -9.842310748555498   1.353964039811318E2  -1.999546871049220E1  -7.492136847739114E1  
 1.412591687041565E11   -2.331674680729577E1  -1.414993372696946E2  -1.001899038220992E1   1.195295638100113E2  -1.006955035757703E1   8.771178166972759E1  -2.154391034690141E1  -6.807671016292173E1  
 1.412713936430318E11   -2.714554517771509E1  -1.148215097255656E2  -9.933595032990821   7.355425959464841E1  -9.997986158584164   4.189066535432427E1  -1.974664729972190E1  -7.097974490537526E1  
 1.412836185819071E11   -2.266268241680952E1  -1.136395575858678E2  -9.763110275557045   2.507422613285779E1  -9.822055052648260  -6.222936448702521  -2.017775309711525E1  -8.642723749222003E1  
 1.412958435207824E11   -2.161010705374189E1  -1.373478241877956E2  -9.939124640443732  -2.367390458049802E1  -9.995306740893465  -5.514325908376849E1  -2.290242843348056E1  -9.101345683725879E1  
 1.413080684596577E11   -2.487529012035885E1  -1.694360619202325E2  -1.021573221973990E1  -6.954789891447298E1  -1.028974298098117E1  -1.005855851101743E2  -2.234944790173611E1  -7.093681032476647E1  
 1.413202933985330E11   -3.370329415957532E1  -1.185486339162854E2  -9.929484157057710  -1.152107286877344E2  -9.987126569089719  -1.466416738763923E2  -2.019429681564177E1  -8.767495462632277E1  
 1.413325183374083E11   -2.598771819932048E1  -1.053638314091609E2  -9.762963492626252  -1.642037150651069E2  -9.814296928932272   1.643449679536619E2  -2.237689128398227E1  -1.087403696163373E2  
 1.413447432762836E11   -2.407380296729964E1  -1.239302579636457E2  -9.951204374445153   1.469745304025921E2  -1.002469512552680E1   1.156240211881735E2  -2.956010206928729E1  -1.023590093537193E2  
 1.413569682151589E11   -2.755605201692460E1  -1.315393732512598E2  -1.020988538167258E1   1.012995268801973E2  -1.026414237210262E1   6.979041866928623E1  -2.418427439300233E1  -4.516626370365238E1  
 1.413691931540342E11   -2.374463976939148E1  -1.026732614694168E2  -9.916676141186036   5.465860176136565E1  -9.980122922576927   2.376768703800032E1  -2.029703133389884E1  -6.974751775897363E1  
 1.413814180929096E11   -2.048640352281172E1  -1.240644077783283E2  -9.802644164972961   5.899802145047695  -9.856842372192617  -2.545948421319698E1  -2.100029123814699E1  -9.164813338829559E1  
 1.413936430317849E11   -2.004047133759300E1  -1.497060224783932E2  -1.006660639047871E1  -4.253805868816580E1  -1.011691748917587E1  -7.400559443791437E1  -2.436326430848755E1  -9.028338442508319E1  
 1.414058679706602E11   -2.365310202000588E1  -1.748796553296426E2  -1.021745914219993E1  -8.741079157952535E1  -1.026051367836715E1  -1.185718071745041E2  -2.171022873066353E1  -7.545274294653565E1  
 1.414180929095355E11   -2.666526533506501E1  -1.408681208755133E2  -9.878019864019572  -1.346906347774129E2  -9.936202035869018  -1.659070706611352E2  -2.056902125548832E1  -9.655334240999490E1  
 1.414303178484108E11   -2.209724243538162E1  -1.416100169969397E2  -9.890363047375329   1.761165308582183E2  -9.942338285825567   1.450332847760685E2  -2.324799764397491E1  -1.140906459135615E2  
 1.414425427872861E11   -2.039473401403636E1  -1.685782903048158E2  -1.025272597392418E1   1.288836024928897E2  -1.029917193858426E1   9.821947763694644E1  -2.796817241419925E1  -8.670304502434490E1  
 1.414547677261614E11   -2.395549268232907E1   1.641958821400812E2  -1.006662981920901E1   8.443490720043904E1  -1.013762205758378E1   5.331605858916677E1  -2.267950058054679E1  -8.055603515773098E1  
 1.414669926650367E11   -2.702345364539648E1  -1.795203072528730E2  -9.741896258441424   3.605749416830730E1  -9.786721985468631   5.238861169721340  -2.326126270593374E1  -1.004134317490105E2  
 1.414792176039120E11   -2.565881998164612E1  -1.797719604263513E2  -9.758965941419918  -1.292276695699749E1  -9.818139453576716  -4.437470690783395E1  -2.728995104274324E1  -9.971448839345872E1  
 1.414914425427873E11   -2.654519191698508E1   1.589717186598117E2  -1.004333864048157E1  -6.016364567654652E1  -1.010607621116443E1  -9.149383614010890E1  -2.596670370040601E1  -5.261318191906609E1  
 1.415036674816626E11   -3.465980698245033E1  -1.672467455785176E2  -9.878130545395916  -1.058574080978870E2  -9.937191993259305  -1.369913257649489E2  -2.072300394728921E1  -6.496796679186330E1  
 1.415158924205379E11   -2.495452691772472E1  -1.545079616073697E2  -9.688757497926853  -1.546542028187652E2  -9.745121346561552   1.747031553211436E2  -1.997244815676527E1  -8.286916400643968E1  
 1.415281173594132E11   -2.234147575733065E1   1.675530046153914E2  -9.804470320934374   1.561443591655925E2  -9.846199768935923   1.257484736837568E2  -2.054393094282431E1  -9.278646510486333E1  
 1.415403422982885E11   -2.366223549241717E1   1.164418066525887E2  -1.012992152177862E1   1.095443414070232E2  -1.017775153282805E1   7.892749828828183E1  -2.100594382332500E1  -8.890359644716851E1  
 1.415525672371638E11   -3.069857987641558E1   3.143544652827845E1  -9.955180462702547   6.383757649480837E1  -1.000803209875416E1   3.350338953456407E1  -1.861244301722734E1  -9.622989053464859E1  
 1.415647921760391E11   -2.914634823314410E1  -9.518693978286827E1  -9.742533601691724   1.599020503645248E1  -9.812768771792520  -1.492669236864295E1  -1.885527663128326E1  -1.181722780046796E2  
 1.415770171149144E11   -2.576252758850426E1  -1.560674393358688E2  -9.874979021102217  -3.290114002298256E1  -9.930229012790768  -6.350789232386641E1  -2.202472491567763E1  -1.323731898117939E2  
 1.415892420537897E11   -2.870809972843550E1   1.441518789417968E2  -1.008810797959731E1  -7.915339228751471E1  -1.012748998305809E1  -1.093970644671806E2  -2.461450630919436E1  -1.069790607444763E2  
 1.416014669926650E11   -4.358202111746033E1  -6.507140887069188E1  -9.825868792888725  -1.255342434767666E2  -9.881561681898143  -1.558400051872551E2  -2.121850494504144E1  -1.104983503371505E2  
 1.416136919315403E11   -2.860109789062488E1  -1.273115243483137E2  -9.741082686230671  -1.742074160574445E2  -9.794947640078130   1.550552391787790E2  -2.209685165223335E1  -1.307484641829779E2  
 1.416259168704157E11   -2.649706421631430E1  -1.750833074173978E2  -9.992252706688870   1.380147642414947E2  -1.003449747000102E1   1.070607560639256E2  -2.778164496365487E1  -1.264312313055234E2  
 1.416381418092910E11   -3.434874638427598E1   1.115771425478005E2  -9.974766163844755   9.235567304248555E1  -1.002685757281643E1   6.172869652607499E1  -2.332020394009323E1  -8.837215741957414E1  
 1.416503667481663E11   -3.096175152332992E1  -7.475887597989430E1  -9.719567554151183   4.492332839894960E1  -9.771139866885481   1.423169732662310E1  -2.033730756631547E1  -1.108218217926298E2  
 1.416625916870416E11   -2.527868318893041E1  -1.225005790330631E2  -9.681455260506141  -3.975438882780928  -9.728565909031911  -3.427859072935222E1  -2.166217414769625E1  -1.356397906694010E2  
 1.416748166259169E11   -2.496345946429647E1  -1.602775970353791E2  -9.889084493334709  -5.177472431825608E1  -9.929380723794683  -8.184476595449355E1  -2.764279569652769E1  -1.354485126090513E2  
 1.416870415647922E11   -3.133846175539270E1  -1.593317788974553E2  -9.810964851919374  -9.807862270677678E1  -9.861677308245461  -1.280549307917418E2  -2.471893923933656E1  -9.535071975220915E1  
 1.416992665036675E11   -2.512719215712810E1  -1.334836342530792E2  -9.685782958488717  -1.462676069506355E2  -9.730130981393373  -1.764361808949164E2  -2.188289951021183E1  -1.093786261906186E2  
 1.417114914425428E11   -2.132223934691636E1  -1.623177933093899E2  -9.820120429678269   1.651001315911487E2  -9.867133809929548   1.349227780090522E2  -2.273888835707666E1  -1.235082660956439E2  
 1.417237163814181E11   -2.074890318984077E1   1.568714082377585E2  -1.011126777805548E1   1.188123021307433E2  -1.015609252933293E1   8.874381429524824E1  -2.373712635348065E1  -1.093290580044741E2  
 1.417359413202934E11   -2.556490342692388E1   1.098999770041260E2  -9.897590719895858   7.310478340944900E1  -9.942701537159556   4.315782399186996E1  -2.014472829698426E1  -1.178860721383750E2  
 1.417481662591687E11   -4.933491675814059E1   1.246487779318970E2  -9.729583352665614   2.495918532310748E1  -9.765787035898622  -5.409600415437336  -2.024731529779388E1  -1.439886320603747E2  
 1.417603911980440E11   -2.937442025277303E1  -1.606511242702256E2  -9.847283489014604  -2.343121259431909E1  -9.891539328855709  -5.346160278387836E1  -2.480746105790102E1  -1.656272116956631E2  
 1.417726161369193E11   -2.906037510212212E1   1.494446545290209E2  -9.880613760519372  -6.954454278233085E1  -9.927402864256349  -9.950749246337763E1  -2.879905923104758E1  -1.106245347798991E2  
 1.417848410757946E11   -4.919906331031908E1  -1.361772632642480E2  -9.648264549832671  -1.169216138211396E2  -9.709211116394430  -1.467830588262540E2  -2.279080731955866E1  -1.147070030069766E2  
 1.417970660146699E11   -2.816785583409800E1  -1.301398362033104E2  -9.621321122914912  -1.655159453359366E2  -9.660455846311129   1.641398352603917E2  -2.208768469852177E1  -1.382891910517994E2  
 1.418092909535452E11   -2.469932658769414E1  -1.653722674828640E2  -9.821758166134634   1.461587932125291E2  -9.864384416435589   1.162057009213794E2  -2.619049897963368E1  -1.560308242350840E2  
 1.418215158924205E11   -2.759159175503550E1   1.585658605132259E2  -9.867108868397684   1.004270514043600E2  -9.915527719987738   6.987730421426893E1  -2.756758382850306E1  -1.064552613213401E2  
 1.418337408312958E11   -3.078468883099917E1  -1.488048158217680E2  -9.678639320913071   5.253063871276237E1  -9.728384308101646   2.201207751095109E1  -2.262561461298686E1  -1.135731406431898E2  
 1.418459657701711E11   -2.308539756702226E1  -1.590759651665299E2  -9.721744205267726   4.031583008143318  -9.786528047746236  -2.697232092988313E1  -2.176713287859904E1  -1.337759674346929E2  
 1.418581907090465E11   -2.041997130880735E1   1.649227181562153E2  -1.003306607839922E1  -4.349062836158574E1  -1.008998817248556E1  -7.434922120115490E1  -2.462873612662560E1  -1.455576973246266E2  
 1.418704156479218E11   -2.246774760481617E1   1.217530890405303E2  -1.002611855742272E1  -8.868737271651095E1  -1.007975290505282E1  -1.193178501923942E2  -2.373231811005241E1  -1.194129584390946E2  
 1.418826405867971E11   -3.221495931076580E1   1.091886021796178E2  -9.772733253250038  -1.364628966226683E2  -9.819690687611018  -1.667963704208731E2  -2.078936076408365E1  -1.367978187769969E2  
 1.418948655256724E11   -2.824062977180202E1   1.762736816740602E2  -9.787585847460040   1.749951663834535E2  -9.843721916425469   1.443783107334091E2  -2.163417097684985E1  -1.609423505001982E2  
 1.419070904645477E11   -2.320035997428582E1   1.441703097801681E2  -1.004932536271730E1   1.279821041260057E2  -1.009578562177035E1   9.713239898602984E1  -2.750142185800659E1  -1.698991109369220E2  
 1.419193154034230E11   -2.532428971392285E1   9.766008881463573E1  -9.908601548598174   8.219555585452842E1  -9.955692038076698   5.125989416659833E1  -2.510297577408201E1  -1.242893772198753E2  
 1.419315403422983E11   -3.974649401391599E1   8.393979743713288E1  -9.750200029907141   3.384120145708113E1  -9.801271508650533   3.212011778026700  -2.162174280521464E1  -1.442270037275855E2  
 1.419437652811736E11   -2.860285990022656E1   1.748854187238592E2  -9.880075979969544  -1.485418348072444E1  -9.939775167610133  -4.520092839309855E1  -2.257576478464016E1  -1.718952356460115E2  
 1.419559902200489E11   -2.379953567533816E1   1.285983754901193E2  -1.009136036451034E1  -6.079355687789398E1  -1.013834937961257E1  -9.141727567961193E1  -3.021468505200169E1  -1.710069316531029E2  
 1.419682151589242E11   -2.640332007526999E1   7.472159121452272E1  -9.860153655465425  -1.072760125392573E2  -9.905800305476994  -1.375867231972726E2  -2.463457347762405E1  -1.299399832428806E2  
 1.419804400977995E11   -3.790541749634760E1   5.313442936815535  -9.711206100137522  -1.557764121615791E2  -9.762708701633011   1.740891148441408E2  -2.163147861337635E1  -1.568760949843747E2  
 1.419926650366748E11   -3.209615305800229E1  -1.674600708147929E2  -9.839805471511511   1.561557657183136E2  -9.875026063321066   1.256516132670760E2  -2.315760028674738E1   1.686229275399904E2  
 1.420048899755501E11   -2.876116657637200E1   1.315593118947663E2  -9.917002567453482   1.098244815519962E2  -9.959359256445472   7.931208517907095E1  -3.361264190061326E1   1.501352555387468E2  
 1.420171149144254E11   -3.773099867898342E1   9.892641261331715E1  -9.717913374410751   6.222195990408206E1  -9.761071781965999   3.168622359410905E1  -2.990735771085018E1  -1.288496880757841E2  
 1.420293398533007E11   -3.201048120439809E1  -1.789264179857933E2  -9.736433552969574   1.334307341834821E1  -9.785591052994942  -1.704146230120250E1  -2.697863902694349E1  -1.537910780163619E2  
 1.420415647921760E11   -2.513238286135207E1   1.394359789678767E2  -1.002636142792534E1  -3.370877780697312E1  -1.007248771471345E1  -6.478977480183150E1  -3.548598918548614E1  -1.793000399505374E2  
 1.420537897310513E11   -2.372773786338700E1   7.612640561648971E1  -1.004602331503181E1  -7.949954573758419E1  -1.008494650402567E1  -1.098768795315275E2  -2.636574997624461E1  -7.611936736203374E1  
 1.420660146699266E11   -2.557203954124124E1  -4.476119222209420E-1  -9.860187287214941  -1.266270054120087E2  -9.901903676833586  -1.574828375929946E2  -2.056435901251660E1  -1.122552752464344E2  
 1.420782396088019E11   -2.599226970159839E1  -8.335949871835523E1  -9.846282817025527  -1.750417526574061E2  -9.896144353033154   1.545295878943093E2  -1.956565305714430E1  -1.466785444237329E2  
 1.420904645476773E11   -2.639751188393381E1  -1.539664595399468E2  -9.949205533788843   1.381958262752018E2  -9.996539020659359   1.075108924526544E2  -2.298606105869784E1  -1.730068810619265E2  
 1.421026894865526E11   -3.519095871938697E1   1.601179081188026E2  -9.781480946128106   9.141139589543649E1  -9.824421650637044   6.080016040009141E1  -2.669186922081302E1  -1.449174450346428E2  
 1.421149144254279E11   -2.965384929334678E1  -1.082935316807625E2  -9.693511960735281   4.278133598609811E1  -9.745043048102167   1.218330683303004E1  -2.212877325586808E1  -1.373088012156833E2  
 1.421271393643032E11   -2.226782941666502E1  -1.471464352843318E2  -9.842027949815337  -5.337927324022512  -9.888681008266435  -3.620998596213254E1  -1.995610772132957E1  -1.579564733602092E2  
 1.421393643031785E11   -2.009826586839215E1   1.670334004974957E2  -1.002127793789599E1  -5.138298036601037E1  -1.006043240035249E1  -8.208574801641359E1  -2.155466031283147E1  -1.751154510949165E2  
 1.421515892420538E11   -2.235210352653221E1   1.225337893353313E2  -9.781585152853950  -9.780486856839518E1  -9.827612522203404  -1.287162066637301E2  -2.152654538387283E1  -1.704394889257196E2  
 1.421638141809291E11   -2.977881689671662E1   9.130261674110838E1  -9.669224326671557  -1.466626269885295E2  -9.717883545671691  -1.771187163746049E2  -1.987394314306759E1   1.763722932500976E2  
 1.421760391198044E11   -3.544242946479087E1  -1.778668088011934E2  -9.820344226926549   1.655036658733017E2  -9.878106042981267   1.344098133832488E2  -2.006301965327367E1   1.491117587690923E2  
 1.421882640586797E11   -2.900414530581124E1   1.576089506951986E2  -9.904310701506278   1.193928768779335E2  -9.951056231498333   8.867007673174000E1  -2.499151878762240E1   1.171024738724301E2  
 1.422004889975550E11   -3.399588846465633E1   1.766192619032318E2  -9.687711898521560   7.178273766746403E1  -9.744830318598973   4.094245597384001E1  -3.859215110591624E1   1.572350231702858E2  
 1.422127139364303E11   -2.516225359325193E1  -1.593763962100095E2  -9.712928790635791   2.304123323462880E1  -9.758535568465737  -7.583533910034929  -2.754377788402774E1  -1.486823190553948E2  
 1.422249388753056E11   -2.019483601168856E1   1.705465695972365E2  -9.961148428379254  -2.477562095834916E1  -1.001445635112254E1  -5.547996535778358E1  -2.487947762116715E1  -1.717295023530745E2  
 1.422371638141809E11   -1.924197862746034E1   1.294362726199774E2  -9.989375882517392  -6.987234568707980E1  -1.004272713872918E1  -1.005683650602083E2  -2.598275754710582E1  -1.626614022435581E2  
 1.422493887530562E11   -2.299851594671533E1   9.076635475006344E1  -9.754004702959263  -1.173990102353069E2  -9.792548747266578  -1.482555339526560E2  -2.166690358265068E1  -1.636697716609974E2  
 1.422616136919316E11   -3.775344689462436E1   9.890051307111446E1  -9.768549691642392  -1.660895429008330E2  -9.827674213532310   1.631397048356254E2  -1.947158384793013E1   1.745282132231130E2  
 1.422738386308069E11   -2.485828867562310E1   1.699967361622325E2  -9.995133411959468   1.469189137905390E2  -1.004824920397894E1   1.161173820109661E2  -1.985623126791307E1   1.471704049748904E2  
 1.422860635696822E11   -2.189887443210336E1   1.351275190927655E2  -9.828133226182521   1.014943145540610E2  -9.901262200216605   7.042226130352921E1  -2.308424608725170E1   1.389485209791628E2  
 1.422982885085575E11   -2.363220570474543E1   1.162031171575224E2  -9.607237619028709   5.317906691750560E1  -9.677721261087836   2.197909799872750E1  -2.316298742985213E1   1.432046702906969E2  
 1.423105134474328E11   -2.509228839651812E1   1.247325765049903E2  -9.692714742199611   4.518425091624112  -9.752809432509940  -2.700709789160707E1  -2.241833507480533E1   1.328655418088378E2  
 1.423227383863081E11   -2.183465213250524E1   1.243063775889875E2  -9.902439342134827  -4.249630165336939E1  -9.970716259800330  -7.371158663601898E1  -2.403576141434614E1   1.093737940221673E2  
 1.423349633251834E11   -2.114356501910919E1   9.818824323983235E1  -9.728872795603378  -8.871253697183663E1  -9.786469544073380  -1.199642113473173E2  -3.011892987465560E1   1.261971319018151E2  
 1.423471882640587E11   -2.415463621721568E1   8.062509770863889E1  -9.621401819234833  -1.374894266936136E2  -9.680519936042680  -1.683109959921564E2  -2.547235994874122E1   1.488004395819821E2  
 1.423594132029340E11   -2.749641348623425E1   9.736970735843542E1  -9.766175447933025   1.740920417641332E2  -9.825775805620689   1.432673626244332E2  -2.224716225749792E1   1.270682940734159E2  
 1.423716381418093E11   -2.408016620203017E1   1.014074197818691E2  -9.910395562526785   1.278983166942864E2  -9.969579492475264   9.742083605030231E1  -2.280399652995324E1   8.909921410250283E1  
 1.423838630806846E11   -2.573348208171385E1   7.995036845445415E1  -9.674693573348870   8.126947846459819E1  -9.726741886394796   5.023612014241930E1  -2.877156365386094E1   5.929261762333793E1  
 1.423960880195599E11   -2.969217507344292E1   1.096290280736794E2  -9.616228232028226   3.256987047896824E1  -9.667063879889335   1.474841501163438  -3.954882416415829E1   8.527142993814734E1  
 1.424083129584352E11   -2.301112479615943E1   1.254245526404159E2  -9.794734204805275  -1.592996642678143E1  -9.834863951449268  -4.643781066931719E1  -3.405847095969477E1   1.276998632138591E2  
 1.424205378973105E11   -1.946245437916923E1   9.529952110011462E1  -9.876446631903727  -6.176480668015859E1  -9.928354863449481  -9.257883588333721E1  -4.148780345944061E1   9.976171711800387E1  
 1.424327628361858E11   -2.033126266904755E1   6.106801672214459E1  -9.723972946764937  -1.095242729527084E2  -9.776427987453161  -1.403735042896882E2  -3.061002677496709E1  -1.600629238990165E2  
 1.424449877750611E11   -2.533106142327966E1   3.613125430631183E1  -9.797209203958710  -1.575937982121697E2  -9.833909574357181   1.716086583300223E2  -2.446603734490594E1   1.604328438983432E2  
 1.424572127139364E11   -3.066443325474794E1   8.586705426886559E1  -9.986629569139632   1.560008691125490E2  -1.003572225656803E1   1.246612510530370E2  -2.388741239470456E1   1.133891676815695E2  
 1.424694376528117E11   -2.497962577194870E1   7.767826488234438E1  -9.822983713976841   1.097328162220791E2  -9.871700680577183   7.850150687597606E1  -2.989414571574162E1   6.887784617564117E1  
 1.424816625916870E11   -2.813071793023801E1   4.891046123695057E1  -9.686370236657963   6.117285050966822E1  -9.727723047001550   3.011871624499885E1  -4.715574074409614E1  -1.318185033473230E2  
 1.424938875305624E11   -3.458952178015301E1   1.427161295356462E2  -9.836521032905628   1.226923692588611E1  -9.885428585054665  -1.863795009216037E1  -2.925144854223224E1  -1.717415600877378E2  
 1.425061124694377E11   -2.142497204662311E1   1.299599714598498E2  -1.012466617757799E1  -3.402149083874861E1  -1.017606604214740E1  -6.541587746951515E1  -2.737096220104181E1   1.564205534083638E2  
 1.425183374083130E11   -1.796513339079737E1   9.149497440374425E1  -9.987667249221758  -7.992161610719937E1  -1.001981592551481E1  -1.108667213083390E2  -2.710360755695145E1   1.753693959120132E2  
 1.425305623471883E11   -1.811311778664105E1   5.789837411003639E1  -9.834581799496368  -1.276437109996367E2  -9.876796552362091  -1.588929510858627E2  -2.114743215339260E1   1.612336377561333E2  
 1.425427872860636E11   -2.107258959175585E1   3.117626436318996E1  -9.960415165875043  -1.754359264664614E2  -1.000318398853603E1   1.528501165506403E2  -1.857797701295487E1   1.285788373609589E2  
 1.425550122249389E11   -2.506584541893787E1   3.705607784720765E1  -1.000387647662593E1   1.385983790758816E2  -1.005173704161869E1   1.072855764199627E2  -1.903518060682864E1   9.093252082336582E1  
 1.425672371638142E11   -2.466853015531988E1   3.475895318724496E1  -9.716229493791508   9.151972298623910E1  -9.756294304701575   6.024063970142422E1  -2.287651400245907E1   6.672694151285347E1  
 1.425794621026895E11   -2.746438474825279E1   2.233475524154407E1  -9.665118289217727   4.223142242344157E1  -9.721840809609066   1.092455900192570E1  -2.649649985311869E1   7.410311303493762E1  
 1.425916870415648E11   -3.526799120834211E1   6.634161688321622E1  -9.930208474491225  -5.915462151112515  -9.982765738262772  -3.724657883691028E1  -2.412199728282922E1   7.399622182448184E1  
 1.426039119804401E11   -2.393864403265574E1   9.202683456156179E1  -1.001456451209127E1  -5.130052698953476E1  -1.005931089423920E1  -8.218125536656800E1  -2.451167943652628E1   3.219795263127094E1  
 1.426161369193154E11   -2.100523878015018E1   5.765838828431939E1  -9.738952760265166  -9.857119800718596E1  -9.794212883789424  -1.293711896297010E2  -3.331660496262337E1  -2.473098833237566E1  
 1.426283618581907E11   -2.254476087817805E1   2.933025605187555E1  -9.723285595231779  -1.472457028210928E2  -9.777392948303438  -1.782190492443532E2  -3.279351252307005E1   1.590311354980363E2  
 1.426405867970660E11   -2.755777515156173E1   3.575335052785281E1  -9.912572943659782   1.655905149820338E2  -9.967940596092921   1.348274636523373E2  -2.619135649949243E1   9.843409876478934E1  
 1.426528117359413E11   -2.316022279364269E1   5.457116689397189E1  -9.773540207236668   1.197276844882266E2  -9.820264053598645   8.868077147926361E1  -2.879637776691271E1   3.645983166549431E1  
 1.426650366748166E11   -2.093899698142684E1   2.902294489986143E1  -9.594043010994518   7.117778373117633E1  -9.637154995150494   4.033465236236125E1  -3.826712962769521E1  -9.030435958866170E1  
 1.426772616136919E11   -2.207946871666373E1  -1.882893920914768  -9.669516608020212   2.293595828367020E1  -9.700463478304407  -8.410581164803594  -2.720310036965863E1   1.711605818152806E2  
 1.426894865525672E11   -2.824437986280087E1  -2.298975140752673E1  -9.840806651978292  -2.412862716339315E1  -9.890520118889093  -5.542465681362996E1  -2.367917583781739E1   1.224928843908272E2  
 1.427017114914425E11   -3.033594320686448E1   2.234778545356786E1  -9.687101473492268  -7.040745651409786E1  -9.726937114649457  -1.018608563078526E2  -2.608301942658003E1   9.097604516765969E1  
 1.427139364303178E11   -2.710288699508291E1   1.248329543108943E1  -9.587663473121650  -1.194161634375875E2  -9.653066374603222  -1.507542243868656E2  -2.889836625414755E1   1.064596541601415E2  
 1.427261613691932E11   -2.870724545231620E1  -2.140861483647269E1  -9.844006813820492  -1.679287209772613E2  -9.869481520102104   1.607929750771217E2  -2.416254010777272E1   1.147333606593500E2  
 1.427383863080685E11   -5.262219030075134E1   2.409043808625401E1  -1.005946111542251E1   1.467756632586223E2  -1.008893638109592E1   1.153112434691568E2  -2.134368434286881E1   8.231120168679342E1  
 1.427506112469438E11   -3.073439717721082E1   5.223029662545525E1  -9.736213479973788   1.005962688716350E2  -9.775061593240372   6.892872115751744E1  -2.392245056997069E1   5.265895946085173E1  
 1.427628361858191E11   -3.082393673648850E1   2.163374104236468E1  -9.598152860291721   5.131438720257493E1  -9.644226943048237   2.010429840588425E1  -2.837015970536683E1   5.048984796249185E1  
 1.427750611246944E11   -4.251355646282163E1   5.309429141481910  -9.805326562280900   2.535306152775414  -9.848010871343197  -2.880239879532499E1  -2.790814524730102E1   7.772638759324488E1  
 1.427872860635697E11   -2.910246637784710E1   1.051607325564290E2  -1.003477938670276E1  -4.288695555482455E1  -1.007022265093453E1  -7.457156793508818E1  -2.468177916639588E1   5.522985951484468E1  
 1.427995110024450E11   -2.484510297396129E1   5.922416056642712E1  -9.769409599683350  -8.999601451579265E1  -9.809536566144613  -1.210420647640799E2  -2.947649049715575E1   2.355203188553663E1  
 1.428117359413203E11   -2.654840681075540E1   2.032630143304336E1  -9.743141607099419  -1.391431984285421E2  -9.798230601542480  -1.701985704800481E2  -3.568277391284357E1   9.570994810910042E1  
 1.428239608801956E11   -4.473576299567963E1  -1.301871530154629E1  -1.008907342332950E1   1.732902094845414E2  -1.012960875245523E1   1.422593556575523E2  -2.573772587140940E1   9.003285995284278E1  
 1.428361858190709E11   -2.645187803289806E1   1.032290145467965E2  -1.005544930412199E1   1.285795052534478E2  -1.009578312515452E1   9.774545693828820E1  -2.536611182958016E1   4.507982085989140E1  
 1.428484107579462E11   -2.308342010732427E1   6.526593556949001E1  -9.703822477007138   8.122510689402699E1  -9.747280175609212   5.022335616238961E1  -3.637505684666467E1   2.652092755395484E1  
 1.428606356968215E11   -2.397032457321171E1   3.573237721809178E1  -9.686896588621234   3.210892524753853E1  -9.720016299842987   1.400520611772286  -2.991746375473153E1   1.234618837943206E2  
 1.428728606356968E11   -2.980889457372728E1   3.254800750035334E1  -9.916401393929261  -1.547562582439778E1  -9.960307907987071  -4.607339266097078E1  -2.360031192030902E1   9.641885824324564E1  
 1.428850855745721E11   -2.671067009169047E1   6.751430582968808E1  -9.819270508194537  -6.129717429033278E1  -9.850859221589237  -9.171198496336129E1  -2.422121924807061E1   6.611561422458169E1  
 1.428973105134474E11   -2.387001962661137E1   5.656638261026355E1  -9.623441069746180  -1.098816861006792E2  -9.678535268329386  -1.400152557566888E2  -2.683765404907753E1   7.908559342489946E1  
 1.429095354523228E11   -2.359107456930469E1   4.043665866323158E1  -9.771547748031193  -1.583974097084163E2  -9.806045090178793   1.711697169682054E2  -2.269890306715846E1   8.856441643640179E1  
 1.429217603911981E11   -2.490360297146637E1   4.460808082887835E1  -1.001681298131746E1   1.555116452898380E2  -1.006249440471444E1   1.250751573560164E2  -1.949662007162247E1   6.443362353548199E1  
 1.429339853300734E11   -2.270585388655918E1   3.956023167966800E1  -9.764520088846769   1.091653895027008E2  -9.807191902925728   7.894093378704315E1  -2.067192737859446E1   3.441364601083214E1  
 1.429462102689487E11   -2.297073601663484E1   2.756793981850613E1  -9.596081079414855   6.081774961130578E1  -9.650575603664668   3.030317869751980E1  -2.489302611879139E1   2.799719196783603E1  
 1.429584352078240E11   -2.431774807352884E1   2.308556256184395E1  -9.745666961496539   1.171140265815292E1  -9.805137578444038  -1.835067114579434E1  -2.514963204401751E1   5.592432333824348E1  
 1.429706601466993E11   -2.376147479392064E1   3.683468096543646E1  -9.962092936289151  -3.432392837263861E1  -1.001764252807638E1  -6.460843125930443E1  -2.083359888886364E1   4.744334284188362E1  
 1.429828850855746E11   -2.136934067207290E1   2.262136467563050E1  -9.705799823566382  -8.067662829030188E1  -9.740100506521150  -1.107721341273289E2  -2.108517841571478E1   1.799580149005302E1  
 1.429951100244499E11   -2.231291854717163E1   3.672949804767876  -9.595896120170446  -1.297528183424224E2  -9.626576930591657  -1.595715568016695E2  -2.540271135956874E1   4.792326479199461  
 1.430073349633252E11   -2.627995363107522E1  -6.271208235279545  -9.790796655118795  -1.775373857200362E2  -9.838807596214068   1.518302624586270E2  -2.728331959540652E1   3.663303052382438E1  
 1.430195599022005E11   -2.728907442382555E1   4.124490777371005E1  -9.902359777133340   1.364529156809976E2  -9.946337923597559   1.063241648094303E2  -2.349443300707275E1   2.769252612034730E1  
 1.430317848410758E11   -2.227737280135593E1   3.481017622333846E1  -9.650281654125866   8.902859272990345E1  -9.696387999774844   5.909765208247185E1  -2.673458072892520E1   2.870911710800423  
 1.430440097799511E11   -2.097983011337751E1   1.792558494393619E1  -9.636046994970783   4.031926441649848E1  -9.677738659978832   9.937481956907655  -3.239043025838709E1   6.091110925020715E1  
 1.430562347188264E11   -2.202151234589672E1   4.993000973190988  -9.870949682806447  -7.505022328874292  -9.905934266523452  -3.718225215326596E1  -2.301220013627771E1   6.824031595821231E1  
 1.430684596577017E11   -2.190132734771666E1   8.806616846891288  -9.785201365184507  -5.318168613169444E1  -9.822633562426002  -8.342405702693154E1  -2.081399055703104E1   3.725775525770935E1  
 1.430806845965770E11   -2.114911349259172E1  -7.608936512048128E-1  -9.598663081813825  -1.016448732915458E2  -9.633444473578152  -1.320199615715757E2  -2.358229430038471E1   1.926550003088942E1  
 1.430929095354523E11   -2.111179721186534E1  -1.305387343659220E1  -9.775590392990585  -1.507346636424451E2  -9.810191020438154   1.793658346979628E2  -2.574424090632923E1   4.833999521439925E1  
 1.431051344743276E11   -2.360096142652619E1  -2.807389667726888E1  -1.014188167152724E1   1.632030169555689E2  -1.017737603290109E1   1.329111457737960E2  -2.000713994334828E1   5.091256785855128E1  
 1.431173594132029E11   -2.490375896285614E1  -1.308264580540998E1  -9.917963558463899   1.180895146251497E2  -9.959463561957906   8.756612261280780E1  -1.861168176120896E1   2.404769295464682E1  
 1.431295843520783E11   -2.455259292795132E1  -2.228371315732547E1  -9.670932233945511   6.931384538703547E1  -9.727901654921764   3.912981871033421E1  -2.031835915618754E1   9.564475225310659  
 1.431418092909536E11   -2.775357825491398E1  -3.037655758974701E1  -9.857429270386604   2.046413264859368E1  -9.909671308051472  -9.713881287952036  -2.167929327486794E1   1.642798460800760E1  
 1.431540342298289E11   -3.106888454958723E1   2.935251413047588E1  -1.012706122005997E1  -2.504606767757178E1  -1.019174632870756E1  -5.563449413503912E1  -1.886495470168294E1   1.542212088114028E1  
 1.431662591687042E11   -2.224428840456850E1   2.308903715523335E1  -9.859063609722250  -7.115291901311966E1  -9.908260867927131  -1.019785705074975E2  -1.847975440645085E1  -1.129514951140783E1  
 1.431784841075795E11   -2.053282255058627E1  -5.432473545982825  -9.715787569891921  -1.201339657177456E2  -9.758033326490692  -1.508680085170201E2  -2.218124890589027E1  -3.380127804572093E1  
 1.431907090464548E11   -2.201811140379162E1  -3.443389471981013E1  -9.979384672930197  -1.684455988292733E2  -1.002520359570866E1   1.608832984378333E2  -2.985530288085748E1   3.534025843144543E-2  
 1.432029339853301E11   -2.977810216449616E1  -4.066936187794518E1  -1.008359856263326E1   1.468350171286612E2  -1.013454288952702E1   1.159848332344855E2  -2.252432645840053E1   2.024862639726316E1  
 1.432151589242054E11   -2.903101022405113E1   8.375250137027924  -9.709664615088396   9.967091137107721E1  -9.762089242256826   6.866850485012519E1  -2.256225682992652E1   1.369684915617007E-1  
 1.432273838630807E11   -2.670521455228830E1   1.778409767015404E1  -9.643217472941403   5.028466076197032E1  -9.699752829220527   1.917032151598045E1  -2.486218920104382E1   1.035697653926520E1  
 1.432396088019560E11   -2.508845576747119E1   2.650856302217449E1  -9.963002348940925   2.003240382838963  -1.002111175543003E1  -2.895014239389818E1  -2.154871486645826E1   3.110010865635508E1  
 1.432518337408313E11   -2.041071913048553E1   3.004677024645726E1  -1.003652103399580E1  -4.303738138351099E1  -1.006922357114273E1  -7.388933318151844E1  -1.744924750075771E1   1.186676803197563E1  
 1.432640586797066E11   -1.781146559258652E1   6.957572746413709  -9.736159942064859  -9.020662277907286E1  -9.785239688146810  -1.210827295221150E2  -1.777106711569922E1  -1.773930405964026E1  
 1.432762836185819E11   -1.780822433349081E1  -1.268956853814538E1  -9.694211726216462  -1.389931864458069E2  -9.745424685060883  -1.701409455975615E2  -2.244750227155926E1  -3.470678911730553E1  
 1.432885085574572E11   -1.908773822231792E1  -2.519871039559074E1  -9.932328219810183   1.732320061130768E2  -9.983016979068188   1.421575944345919E2  -2.498242216013385E1   1.643344353367317E1  
 1.433007334963325E11   -1.924885895233723E1  -2.163467524022151E1  -9.893269291465087   1.277656829008523E2  -9.944579976378723   9.646121042752273E1  -1.873539759852809E1   1.122533964887575E1  
 1.433129584352078E11   -1.805465686886110E1  -3.495245668415873E1  -9.660986885804888   7.961323617350809E1  -9.723209793298745   4.871040544588449E1  -1.781500802923437E1  -1.099377632948476E1  
 1.433251833740831E11   -1.896564767749842E1  -5.166963335385855E1  -9.756804636987051   3.048800963194034E1  -9.834625264892187  -3.731753379147896E-1  -1.982027278124507E1  -2.133234821777759E1  
 1.433374083129584E11   -2.230818006226524E1  -6.239271169249656E1  -1.008474369320669E1  -1.554485092001871E1  -1.015485807306632E1  -4.685532007389682E1  -1.953642408284028E1  -6.340898545393775  
 1.433496332518337E11   -2.289796658078658E1  -3.173834745277615E1  -9.868548694949306  -6.082514984600379E1  -9.934841486183776  -9.247195279763048E1  -1.694384222258766E1  -1.837234495060916E1  
 1.433618581907091E11   -1.932832082393393E1  -4.435417197453218E1  -9.668583479058608  -1.093090686561929E2  -9.750563186880553  -1.411457144758192E2  -1.698754946299458E1  -3.746409227890324E1  
 1.433740831295844E11   -1.935014389511419E1  -7.145854632614365E1  -9.830204963211854  -1.583156288002659E2  -9.892250509546274   1.703070656374055E2  -1.932542417254560E1  -5.216129111478039E1  
 1.433863080684597E11   -2.389552142099018E1  -1.032125174484507E2  -1.003354588461494E1   1.558233690257728E2  -1.009992261425822E1   1.249633580692880E2  -2.120070916418342E1  -4.077462620903177E1  
 1.433985330073350E11   -3.485864338748372E1  -5.012130622250858E1  -9.735337964534097   1.093924811255006E2  -9.773477253552379   7.822813127852251E1  -2.028067319091544E1  -4.741708652661621E1  
 1.434107579462103E11   -2.677277422983285E1  -2.318310948558740E1  -9.588250642244878   6.038637836774793E1  -9.654861822991542   2.920022272267851E1  -2.277253797903740E1  -5.689857222110155E1  
 1.434229828850856E11   -2.497242525633575E1  -3.726021954586333E1  -9.798451989414303   1.192439939149445E1  -9.851602645010264  -1.962117546436291E1  -2.665044349994397E1  -2.803239912857741E1  
 1.434352078239609E11   -2.692827900079562E1  -2.587437480883176E1  -9.918703538623273  -3.378658303385136E1  -9.976379957545415  -6.511722384989781E1  -2.066444626566375E1  -9.845478829046083  
 1.434474327628362E11   -2.271615762817372E1  -2.188800073695263E1  -9.666624179914750  -8.057356419681952E1  -9.713646331459925  -1.126363389921462E2  -1.865082657490324E1  -3.132408365054525E1  
 1.434596577017115E11   -2.165376987714178E1  -4.276536347941003E1  -9.649590974581981  -1.297997568499748E2  -9.703740441644927  -1.614005007263746E2  -1.994820705669472E1  -4.785641600885533E1  
 1.434718826405868E11   -2.417825227687200E1  -6.440003886656201E1  -9.987053651657492  -1.777097658893055E2  -1.002785386886144E1   1.504853312411800E2  -2.265713366890818E1  -3.615402331745236E1  
 1.434841075794621E11   -3.021836605283022E1  -1.166351287797086E1  -1.002391260400934E1   1.377940785541910E2  -1.006426860462393E1   1.057624071219206E2  -1.884510594669756E1  -2.768651199066886E1  
 1.434963325183374E11   -2.175997110827763E1  -8.158618540341823  -9.718528826585073   9.071166255158026E1  -9.752206749622886   5.845809692880622E1  -1.762240662710706E1  -5.004966393538748E1  
 1.435085574572127E11   -1.980252493389540E1  -2.919772142969806E1  -9.692094430900347   4.132478883973672E1  -9.730125654531618   9.319877128214250  -2.005768116967785E1  -6.874354934593069E1  
 1.435207823960880E11   -2.112429756539148E1  -4.287521010818764E1  -9.903552010902928  -5.925044816737140  -9.945221185775257  -3.800120987358385E1  -2.411103829131480E1  -4.548587406814859E1  
 1.435330073349633E11   -2.061942842555147E1  -2.743274715743093E1  -9.765587131981352  -5.212874358842792E1  -9.812256556800543  -8.432385144346225E1  -1.925939817603400E1  -3.440595661577044E1  
 1.435452322738386E11   -1.735440703742663E1  -3.765478428856976E1  -9.644888107799432  -1.009055728906204E2  -9.686311782026502  -1.326582566910356E2  -1.734428313821878E1  -5.533380171375318E1  
 1.435574572127139E11   -1.630816626764956E1  -5.938776926990896E1  -9.796978148929798  -1.491692108918010E2  -9.873090928584553   1.794279341839073E2  -1.882311912721644E1  -7.893036963054676E1  
 1.435696821515892E11   -1.780521940742585E1  -8.340808493922819E1  -1.007989984055526E1   1.647701809388749E2  -1.013183260343322E1   1.333302229165989E2  -2.323900160294138E1  -7.100451222278635E1  
 1.435819070904645E11   -2.162517633045795E1  -8.149524587057817E1  -9.771881800258186   1.187425414891276E2  -9.820936435082439   8.764521640111558E1  -2.078839948012172E1  -5.841069255085391E1  
 1.435941320293398E11   -2.046317819693702E1  -7.104985197425282E1  -9.596052200998916   6.972085094655363E1  -9.645064605270582   3.864719979244809E1  -1.966839690020678E1  -7.105697878648309E1  
 1.436063569682152E11   -1.916117025133222E1  -8.570571864172024E1  -9.780492977456497   2.115846090211008E1  -9.842136882186097  -9.970323735750680  -2.102015590267957E1  -8.790683441315485E1  
 1.436185819070905E11   -2.151708737865385E1  -1.132747566158115E2  -9.971051580681388  -2.450173546569146E1  -1.001524669910413E1  -5.541237769016410E1  -2.375117824418979E1  -7.898707080523060E1  
 1.436308068459658E11   -2.993957695950154E1  -1.053444586770619E2  -9.652083908882213  -7.108602333402855E1  -9.712131337435421  -1.018999000668327E2  -2.228581805063172E1  -8.252026947616442E1  
 1.436430317848411E11   -2.802350201734900E1  -4.445234006797597E1  -9.553871143730348  -1.202296689322756E2  -9.618212946047226  -1.513300609230112E2  -2.417430030224468E1  -1.048015158433983E2  
 1.436552567237164E11   -2.299735954372777E1  -4.529214112760342E1  -9.764246285032940  -1.688969125482244E2  -9.822735035496716   1.605714116371070E2  -3.644542268093221E1  -1.341354691725005E2  
 1.436674816625917E11   -2.206139123880057E1  -5.049691204724596E1  -9.871777784038512   1.455185551156544E2  -9.934952376550035   1.148560738941957E2  -2.594345519521975E1   3.597281453208423  
 1.436797066014670E11   -1.941120265872860E1  -5.379598515815896E1  -9.641380463889183   9.815554257380894E1  -9.700459028218246   6.728332713674936E1  -2.106406023520968E1  -2.733525163394418E1  
 1.436919315403423E11   -1.820574431420450E1  -7.157837258935020E1  -9.637668326503647   4.941384183485158E1  -9.720320974348399   1.894579207731778E1  -2.086405605457302E1  -5.039589526336626E1  
 1.437041564792176E11   -1.915901451161791E1  -9.066598863341601E1  -9.940060192211949   1.885845221077280  -9.980005545300854  -2.825887041999384E1  -2.296696983186079E1  -4.739155761805188E1  
 1.437163814180929E11   -2.327464416719996E1  -8.808751683540314E1  -9.800672964908177  -4.376771130406944E1  -9.860070507098417  -7.348498092546249E1  -2.001511228452784E1  -4.204194586735190E1  
 1.437286063569682E11   -2.067249512162806E1  -6.564943443494168E1  -9.581759238510241  -9.183641915943775E1  -9.639713845412659  -1.221106162446218E2  -1.845983349258436E1  -5.800151184497062E1  
 1.437408312958435E11   -1.810942044297737E1  -7.948493646178368E1  -9.667875547759133  -1.407036709804473E2  -9.704517874959443  -1.709945346896829E2  -1.888210729491463E1  -7.851644384687172E1  
 1.437530562347188E11   -1.861743807024885E1  -1.002636422948683E2  -9.874667248997094   1.726115635667966E2  -9.929424875435318   1.425380242073437E2  -2.279767391778925E1  -8.620742340967348E1  
 1.437652811735941E11   -2.138608583871800E1  -9.723454710650735E1  -9.675132772191505   1.262801203403916E2  -9.740330750491989   9.610698452884886E1  -2.288158309251594E1  -6.537813741147538E1  
 1.437775061124694E11   -1.966467950390891E1  -8.803519022835468E1  -9.581719019723822   7.734476487084346E1  -9.622382279352207   4.750820348519859E1  -2.111876543143892E1  -6.761940103046601E1  
 1.437897310513447E11   -1.810605606008844E1  -1.015311618431669E2  -9.821632097378824   2.842565705103811E1  -9.868215470655438  -1.191914236052831  -2.173154923750215E1  -8.079066314910030E1  
 1.438019559902200E11   -1.963701328201727E1  -1.227295462835257E2  -1.004366679126620E1  -1.688891596623369E1  -1.009137226069555E1  -4.652083127411040E1  -2.380960309915474E1  -6.320007524881893E1  
 1.438141809290953E11   -2.379566336738314E1  -1.052727033101025E2  -9.753330709351047  -6.369376150625516E1  -9.781592132550117  -9.303658762525917E1  -2.025913415986577E1  -6.062058343624026E1  
 1.438264058679706E11   -1.956999782263761E1  -9.116131946761365E1  -9.684847221551825  -1.126978795881560E2  -9.715202099952625  -1.422589982371418E2  -1.878030051505150E1  -7.536924253762905E1  
 1.438386308068460E11   -1.708014038408087E1  -1.120662029023492E2  -1.000146017315605E1  -1.605673740104908E2  -1.004045222287600E1   1.695653110868342E2  -1.950799256408265E1  -9.737980073955575E1  
 1.438508557457213E11   -1.845430159282639E1  -1.411277096062348E2  -1.016427111323372E1   1.545126562028901E2  -1.021725964184281E1   1.249844415276494E2  -2.324841106699244E1  -9.526592889912702E1  
 1.438630806845966E11   -2.370072096522896E1  -1.426798187568725E2  -9.772836717201788   1.079169588906957E2  -9.799250794066200   7.830846578729953E1  -2.217924331126516E1  -8.867995800006651E1  
 1.438753056234719E11   -2.326078010714498E1  -1.137088545408616E2  -9.636582688064195   5.882782787848763E1  -9.687956018063455   2.901110328220624E1  -2.241795167158798E1  -9.956472152224966E1  
 1.438875305623472E11   -2.007391937956933E1  -1.188986103959197E2  -9.897304434375815   1.056727307937043E1  -9.947216504130804  -1.907312613957583E1  -2.554940088113890E1  -1.091090013344391E2  
 1.438997555012225E11   -2.059620435080503E1  -1.391486006072686E2  -9.911999793594047  -3.478333275401502E1  -9.958002622582493  -6.469957093322881E1  -2.731000387861821E1  -7.870222781686573E1  
 1.439119804400978E11   -2.242803823490096E1  -1.356480108744989E2  -9.662828860489285  -8.266491044968439E1  -9.708469389947192  -1.129164822473310E2  -2.633669712091235E1  -7.930250344593669E1  
 1.439242053789731E11   -2.095288348048168E1  -1.351118592347022E2  -9.788526351324141  -1.317979266917398E2  -9.836168951907425  -1.616417637577406E2  -2.853961356991999E1  -6.507749421360148E1  
 1.439364303178484E11   -1.974668808616330E1  -1.567347489213664E2  -1.013122171233250E1  -1.777341240997513E2  -1.018672817502580E1   1.522953997294441E2  -2.449360659603949E1  -2.650411133818436E1  
 1.439486552567237E11   -2.388153658642628E1   1.706434269727938E2  -9.911710382061649   1.369306938883568E2  -9.951332114018225   1.068982720639494E2  -1.931009971934708E1  -4.425917402693839E1  
 1.439608801955990E11   -3.291188019774630E1  -1.286693668657501E2  -9.644971519547411   8.877623779879221E1  -9.690357163902014   5.847933294552099E1  -1.835587563110242E1  -6.463653326160313E1  
 1.439731051344743E11   -2.283871869855043E1  -1.248553962531078E2  -9.699888551599992   3.993261377366515E1  -9.731876397531478   9.363263393167371  -1.883482250316803E1  -7.813441530743491E1  
 1.439853300733496E11   -2.091204795821830E1  -1.644665062911292E2  -9.876120818191824  -6.605732651994745  -9.917122051884498  -3.752098838878564E1  -2.010486301567757E1  -7.889104706407287E1  
 1.439975550122250E11   -2.493901597367325E1   1.502715908859631E2  -9.715603721224760  -5.271055765639583E1  -9.751397643343239  -8.385274736156025E1  -1.852151022092148E1  -7.913888535524777E1  
 1.440097799511003E11   -4.328288261616104E1   9.900366450733966E1  -9.565632350536889  -1.013686235111748E2  -9.607555149111793  -1.323951936704498E2  -1.816443211612498E1  -9.430171919834248E1  
 1.440220048899756E11   -3.027525294649298E1  -1.084768286336733E2  -9.661249875994413  -1.496617653851621E2  -9.696882966874323   1.793784883347332E2  -2.016488902131795E1  -1.059916250739603E2  
 1.440342298288509E11   -2.986656166119041E1  -1.666042876326538E2  -9.746441644715965   1.637415806911722E2  -9.797891974498723   1.326040773293721E2  -2.223532029425135E1  -9.029892816436109E1  
 1.440464547677262E11   -3.536651928586292E1   3.817596511940845E1  -9.620838511069305   1.160714228902495E2  -9.679693182185979   8.506195510059057E1  -1.932637045673539E1  -8.577456154671229E1  
 1.440586797066015E11   -2.451132044784364E1  -4.068179253253422E1  -9.672610879511064   6.751557315973911E1  -9.720185717921964   3.693648336179241E1  -1.800066600712014E1  -1.013544048919834E2  
 1.440709046454768E11   -2.074111896810067E1  -8.306426808396607E1  -9.866687041682292   2.054517622460421E1  -9.921412020589559  -1.065157356916562E1  -1.943604678283406E1  -1.191492873865183E2  
 1.440831295843521E11   -2.179204079838646E1  -1.160584408862355E2  -9.743281722467925  -2.527199886471409E1  -9.794011556473910  -5.667034789992852E1  -2.175752073913031E1  -1.171028515733246E2  
 1.440953545232274E11   -2.408052061956099E1  -1.172405176560153E2  -9.567483444392394  -7.394991754236487E1  -9.632958336743528  -1.051957321190403E2  -2.251752394936258E1  -1.144902436711975E2  
 1.441075794621027E11   -2.259630245358212E1  -1.166861855596154E2  -9.662591956028511  -1.227300039672656E2  -9.708658018727546  -1.540681858734905E2  -2.324111996558725E1  -1.127231048116266E2  
 1.441198044009780E11   -2.123111908007703E1  -1.402927466599271E2  -1.000962029406766E1  -1.702974680752698E2  -1.006107122153021E1   1.585505656147071E2  -2.580965482382344E1  -1.036880859374096E2  
 1.441320293398533E11   -2.558498679814528E1   1.743531468170881E2  -9.999172166339676   1.447204460671279E2  -1.005319787350048E1   1.129415455695473E2  -2.193758251117634E1  -7.336143614988097E1  
 1.441442542787286E11   -3.222049295455047E1  -1.507353337865691E1  -9.835659339563737   9.676097183891592E1  -9.892016041691894   6.515574713282102E1  -1.818843676574113E1  -8.927410418775520E1  
 1.441564792176039E11   -2.043267400827282E1  -6.870222513947681E1  -1.001343795256283E1   4.851861018068654E1  -1.008038189943569E1   1.726106410636426E1  -1.747368198457851E1  -1.121370729145569E2  
 1.441687041564792E11   -1.730611497242931E1  -1.096648977516093E2  -1.026713983696729E1   3.492290338523014  -1.032863526099301E1  -2.811109374895304E1  -1.949589318403170E1  -1.254939249942203E2  
 1.441809290953545E11   -1.864327887039762E1  -1.422829699441243E2  -9.883151959691487  -4.242277967649961E1  -9.934865684319151  -7.383386906471310E1  -1.949633179571128E1  -1.281647267406824E2  
 1.441931540342298E11   -2.156799732466242E1  -1.526311041603719E2  -9.650451740068858  -9.121858809245005E1  -9.708856228414867  -1.227594702262582E2  -2.047808391243652E1  -1.439237450814198E2  
 1.442053789731051E11   -2.204983222861446E1  -1.476283599304324E2  -9.800036348455828  -1.398615537202282E2  -9.857408450541847  -1.715359364475421E2  -2.379285086612506E1  -1.592301190317039E2  
 1.442176039119804E11   -2.151754111201469E1  -1.671620388515039E2  -9.907502026301815   1.744685459582915E2  -9.947285198368954   1.423053242281661E2  -3.370554538812922E1  -1.253771081599840E2  
 1.442298288508557E11   -2.786914072752128E1   1.732829105884822E2  -9.664840924141434   1.271450402682400E2  -9.693418390776278   9.519563196644148E1  -2.487083774385617E1  -8.480272069603234E1  
 1.442420537897311E11   -2.816275261298527E1  -1.111877979338089E2  -9.606035860309200   7.820217576585978E1  -9.669916048756525   4.630180233718487E1  -2.182720527251699E1  -9.950620986362661E1  
 1.442542787286064E11   -2.103800690351252E1  -1.302967368635332E2  -9.858180905825391   3.077405320446353E1  -9.926510607222083  -1.799425978864590  -2.204642262364922E1  -1.159685625463187E2  
 1.442665036674817E11   -2.068037368975699E1  -1.722334621923939E2  -9.903907542036720  -1.503419903038521E1  -9.950924985684562  -4.723174022936781E1  -2.375351811258925E1  -1.048686557425018E2  
 1.442787286063570E11   -2.705400101353482E1   1.484027872510262E2  -9.665824845086855  -6.269810830682167E1  -9.723301199361881  -9.516209186396534E1  -2.053580595526716E1  -1.030761229739716E2  
 1.442909535452323E11   -3.404567519887034E1  -7.247226369224561E1  -9.694403877989545  -1.114179734079405E2  -9.749750611687000  -1.438210702866306E2  -1.912223248299220E1  -1.202135561613397E2  
 1.443031784841076E11   -2.323003698388291E1  -1.108517996571484E2  -9.941063139886584  -1.586413329012694E2  -1.000577170161893E1   1.687963014130811E2  -2.067985046536709E1  -1.424848794530274E2  
 1.443154034229829E11   -2.404499056686424E1  -1.484063726844274E2  -9.852841621811120   1.556724938939331E2  -9.899579803170019   1.233544196796347E2  -2.509284171880585E1  -1.342447294164605E2  
 1.443276283618582E11   -2.995172016074840E1  -1.179905314981790E2  -9.651401019129354   1.073917431157602E2  -9.707519417947982   7.491340644547454E1  -2.355887475403019E1  -1.127324742825758E2  
 1.443398533007335E11   -2.165807717419204E1  -9.698590961357540E1  -9.769109457507998   5.884342570490577E1  -9.811321852682026   2.653728419534651E1  -2.091903970920759E1  -1.185902799145249E2  
 1.443520782396088E11   -1.768420411588536E1  -1.264401924114322E2  -1.003763265354918E1   1.249252616318923E1  -1.007637447162958E1  -2.014675482880117E1  -2.117702992538454E1  -1.323674823196674E2  
 1.443643031784841E11   -1.838592944635997E1  -1.573659438280539E2  -9.819599513097710  -3.325807854799731E1  -9.870477515285913  -6.576528342906407E1  -2.128524171791217E1  -1.317447963041968E2  
 1.443765281173594E11   -2.199461749229475E1  -1.667698079358007E2  -9.625036316187599  -8.174618279295827E1  -9.682658769809409  -1.139886396966106E2  -2.091091978652599E1  -1.430800538516091E2  
 1.443887530562347E11   -2.256475349916391E1  -1.473487835655996E2  -9.728035051457779  -1.299995349074274E2  -9.773223823924718  -1.627939818797825E2  -2.224214352247826E1  -1.561725117034451E2  
 1.444009779951100E11   -1.997701938720196E1  -1.570655444894909E2  -9.807830337596416  -1.768061236350117E2  -9.865355898255155   1.510135358864561E2  -2.647519534252146E1  -1.572905792303919E2  
 1.444132029339853E11   -2.216512296058170E1  -1.709914046877618E2  -9.640773659071192   1.354203301701904E2  -9.676822943373619   1.033036078682571E2  -2.663143443080453E1  -1.311419476765554E2  
 1.444254278728606E11   -2.370007072518049E1  -1.446076838814107E2  -9.670541302907431   8.671644413207197E1  -9.716184393729225   5.424537384351172E1  -2.522174507205218E1  -1.254158633345673E2  
 1.444376528117359E11   -1.843067089521034E1  -1.404545232242011E2  -9.997928020210525   3.861088842504544E1  -1.005461300675578E1   6.245713517445014  -2.430260001425895E1  -1.292852523759532E2  
 1.444498777506112E11   -1.587845091411743E1  -1.682052506266105E2  -1.022691963031063E1  -6.144831406048871  -1.026077766385897E1  -3.810382733622104E1  -2.534251468485389E1  -1.176308911629251E2  
 1.444621026894865E11   -1.736970861324496E1   1.632692391233399E2  -9.904330009036926  -5.221403570963385E1  -9.948558941999096  -8.415580320991820E1  -2.127251890143218E1  -1.178786489135436E2  
 1.444743276283619E11   -2.185421841202973E1   1.568552948443293E2  -9.754498263820024  -1.005332152288957E2  -9.808868703866734  -1.323122869219143E2  -2.065765650195996E1  -1.401859103033453E2  
 1.444865525672372E11   -2.114062304268335E1  -1.781317628298374E2  -9.830725249993602  -1.479529895244860E2  -9.885686263234151  -1.797805950194981E2  -2.394429560893436E1  -1.532428789561517E2  
 1.444987775061125E11   -1.881665632879009E1   1.646554069153291E2  -9.696549052420147   1.652004070390132E2  -9.737680636718389   1.336914998258235E2  -2.458218151079177E1  -1.200988993226609E2  
 1.445110024449878E11   -2.093118486811781E1   1.397061132319849E2  -9.579639979852809   1.169225695930537E2  -9.626594880448110   8.547749320787054E1  -2.043606406570632E1  -1.239246095264338E2  
 1.445232273838631E11   -2.883160425540604E1   1.447279617945349E2  -9.676097227240572   6.856130012161142E1  -9.723915104130738   3.691134654501709E1  -1.903795357661107E1  -1.435043969216053E2  
 1.445354523227384E11   -2.330318396926002E1  -1.620050335309809E2  -9.880421904323994   2.196180765116126E1  -9.904560158779516  -9.562151215086782  -2.042678394732974E1  -1.639297681364084E2  
 1.445476772616137E11   -2.014085237612436E1   1.734097065905992E2  -9.671345921193998  -2.426030074936134E1  -9.693201338092676  -5.527555179402672E1  -2.298690991540896E1  -1.584393227808388E2  
 1.445599022004890E11   -2.175096540184584E1   1.579054417578936E2  -9.489754017217800  -7.288132515066364E1  -9.539384587133405  -1.039328391907489E2  -2.167235416371894E1  -1.577050964554607E2  
 1.445721271393643E11   -2.315276013925159E1   1.727406453615111E2  -9.579584901559590  -1.215533411726751E2  -9.638008702784651  -1.522921160989212E2  -2.167841107852791E1  -1.716968212973805E2  
 1.445843520782396E11   -1.944894534881351E1   1.717560069875939E2  -9.718957277530423  -1.680159713358961E2  -9.758118963463717   1.612383177436534E2  -2.529355542334777E1   1.738844223321803E2  
 1.445965770171149E11   -1.891734150542802E1   1.476005075752165E2  -9.527007379522123   1.445687411057237E2  -9.582416606968515   1.144124747562473E2  -2.731315391017887E1  -1.474292610670047E2  
 1.446088019559902E11   -2.180689604027277E1   1.320712292587235E2  -9.473353332941203   9.608137984990196E1  -9.528906640027950   6.572148761475874E1  -2.308221489593940E1  -1.491795986971967E2  
 1.446210268948655E11   -2.454942245968773E1   1.565829884311322E2  -9.650122875476679   4.787024990669068E1  -9.703006252225332   1.778003885237605E1  -2.248111539415891E1  -1.698289628608471E2  
 1.446332518337408E11   -1.978383632717174E1   1.585439440176477E2  -9.778914825830428   1.503532255039242  -9.803379195785137  -2.815204960341685E1  -2.679009971225139E1   1.770667476789515E2  
 1.446454767726162E11   -1.894483562319702E1   1.320400831776246E2  -9.591367274423611  -4.525261999185540E1  -9.641433773967950  -7.563156750124080E1  -2.629996338054243E1  -1.417876342870181E2  
 1.446577017114915E11   -2.190994965841296E1   1.120433877706214E2  -9.595310063221866  -9.369894133495761E1  -9.631103949911651  -1.241014818091322E2  -2.219946217258698E1  -1.556128004063004E2  
 1.446699266503668E11   -2.542216255222336E1   1.352866164576064E2  -9.763292091665663  -1.413769004131696E2  -9.812962633653559  -1.714143594013972E2  -2.295636468527749E1   1.738123765892347E2  
 1.446821515892421E11   -2.063873321706851E1   1.357412864074110E2  -9.684405346139602   1.725929729552448E2  -9.731967393562018   1.424352865377324E2  -3.242759926935791E1   1.719872444357958E2  
 1.446943765281174E11   -1.997553527096250E1   1.038427658065523E2  -9.584071381717918   1.245076603603981E2  -9.626626070108877   9.393723691006899E1  -2.550203827570251E1  -1.229277363634065E2  
 1.447066014669927E11   -2.344488429257047E1   6.442435974532918E1  -9.697855553427820   7.604171215619333E1  -9.739640646646169   4.616393835133984E1  -2.063576119619301E1  -1.486196031195590E2  
 1.447188264058680E11   -4.105901340751419E1  -9.088676824954780  -9.843230610568162   2.975342777207018E1  -9.892326805687265   1.193072693914178E-1  -2.079996428326218E1   1.797509806203003E2  
 1.447310513447433E11   -2.919175801946721E1   1.690112999613390E2  -9.593899185194458  -1.728938111693213E1  -9.636987491875303  -4.660514801368191E1  -2.430795304736683E1   1.698468791547231E2  
 1.447432762836186E11   -2.974884267965693E1   1.443539589337299E2  -9.485458659358887  -6.608379515761399E1  -9.527821544187878  -9.570740407650264E1  -2.526059987978966E1   1.771454998482547E2  
 1.447555012224939E11   -3.060024645578013E1  -1.660390427145276E2  -9.729228749920091  -1.145222947868705E2  -9.762943523020994  -1.442586838931813E2  -2.439459405614360E1   1.701203095670221E2  
 1.447677261613692E11   -2.145562547106686E1  -1.768829812249497E2  -9.947014005407603  -1.603486072089817E2  -9.974318587679932   1.700841074082562E2  -2.794878285268791E1   1.347530012239718E2  
 1.447799511002445E11   -1.914745220777422E1   1.433821770091273E2  -9.688769241744568   1.535216864900883E2  -9.740543600074965   1.232817235288706E2  -3.401647606042491E1  -9.002398999358205E1  
 1.447921760391198E11   -2.123393965000212E1   1.046055680810806E2  -9.624424623578140   1.052366909748621E2  -9.663753755732326   7.492768707669586E1  -2.308401121216715E1  -1.258486751289323E2  
 1.448044009779951E11   -3.126283451145383E1   6.616364456906648E1  -9.827651988775457   5.701749038790566E1  -9.869293746583038   2.724616611870580E1  -2.032516494349612E1  -1.597476400062772E2  
 1.448166259168704E11   -2.736041661256935E1  -1.682055515060651E2  -9.883725591325883   1.191278489579153E1  -9.922482121122863  -1.803749156481043E1  -2.240147259333433E1   1.697246169417898E2  
 1.448288508557457E11   -2.303125319388743E1   1.576396619098165E2  -9.565213344384905  -3.520976231596620E1  -9.588732669485735  -6.558230884378546E1  -2.534691689663239E1  -1.794843074180328E2  
 1.448410757946210E11   -2.443471805873373E1   1.385904602707201E2  -9.522823197321719  -8.431112368867477E1  -9.560268692361770  -1.144966904005567E2  -2.331225190232524E1  -1.792192680919009E2  
 1.448533007334963E11   -2.544562819983553E1   1.596277329064086E2  -9.738608985625536  -1.315003452211476E2  -9.784495687009530  -1.620714335136532E2  -2.266221790925760E1   1.561298128292360E2  
 1.448655256723716E11   -2.088528068371494E1   1.502015387642471E2  -9.645268533206751  -1.774736320205717E2  -9.692878488913244   1.515948028279189E2  -2.931675054963517E1   1.218344832482973E2  
 1.448777506112470E11   -2.080295421889626E1   1.207323721594719E2  -9.468251265210009   1.336974452205581E2  -9.501772661665651   1.035301617645141E2  -3.216902004981871E1  -1.267904156139629E2  
 1.448899755501223E11   -2.593730192132518E1   9.403797174814351E1  -9.574067525790705   8.523831999924546E1  -9.611452887351378   5.455910747557582E1  -2.379877954502470E1  -1.444443530876931E2  
 1.449022004889976E11   -3.015607200600350E1  -1.717935692462432E2  -9.836054655511326   3.877030835215728E1  -9.875474060077393   7.648003671051929  -2.196711802587158E1  -1.729122570766710E2  
 1.449144254278729E11   -2.111490579613505E1   1.690257056191494E2  -9.680068139179847  -7.122718891553504  -9.709882040906779  -3.828021420016918E1  -2.467623770619205E1  -1.784430518460565E2  
 1.449266503667482E11   -1.941486439194224E1   1.443473950918434E2  -9.491912698858611  -5.520269961997929E1  -9.526111540508824  -8.686712801010148E1  -2.170636028813542E1  -1.699085701774295E2  
 1.449388753056235E11   -2.031927936992827E1   1.291987921736816E2  -9.605691387796963  -1.040139253653115E2  -9.642242836578411  -1.354245180269444E2  -1.909849161034132E1   1.691499917405440E2  
 1.449511002444988E11   -2.034346434980172E1   1.314173704219757E2  -9.836117572511840  -1.503362625128120E2  -9.863197697736849   1.780862603462965E2  -1.884499087365104E1   1.362846801436542E2  
 1.449633251833741E11   -1.904527306255343E1   1.145631542330293E2  -9.646929100027114   1.636209821758949E2  -9.673554545392499   1.314623498052328E2  -2.311773787691321E1   9.777127415897226E1  
 1.449755501222494E11   -2.144057491636851E1   9.292919708105872E1  -9.529217706462577   1.146828313255011E2  -9.567978773266241   8.265602715344294E1  -3.669059619289388E1   9.194076917591720E1  
 1.449877750611247E11   -2.925897933204252E1   1.127716715216964E2  -9.754922166327102   6.673074815963896E1  -9.788427964130415   3.411986437499623E1  -3.024785418456019E1  -1.754740396335773E2  
 1.450000000000000E11   -2.088152190101998E1   1.548310480474341E2  -9.968095021835959   2.129402328401661E1  -9.995357677803781  -1.137839177468238E1  -2.890689308955761E1   1.473225121151875E2  
 1.450122249388753E11   -1.710927940413621E1   1.269379362437729E2  -9.726442420271354  -2.495770140957148E1  -9.749473892150466  -5.797990521581296E1  -3.453591483039850E1  -1.083178534537500E2  
 1.450244498777506E11   -1.701725796802313E1   9.810624427308471E1  -9.668303176849941  -7.312332352545234E1  -9.678326214754536  -1.062229392540442E2  -2.205789989697028E1  -1.379875969598249E2  
 1.450366748166259E11   -2.041122033772638E1   7.495510378176930E1  -9.815004678821760  -1.201819606069165E2  -9.833855466261381  -1.536669988939563E2  -1.876907082498387E1  -1.747438182771115E2  
 1.450488997555012E11   -2.463890124703366E1   9.467455212295474E1  -9.726091269783725  -1.661579582004476E2  -9.768183617446100   1.603896257137786E2  -1.983577228834175E1   1.521497042972131E2  
 1.450611246943765E11   -2.285690307576729E1   1.055153840036291E2  -9.452460335356854   1.459938141740892E2  -9.479296594146884   1.124673641146572E2  -2.319138709144487E1   1.479927346386734E2  
 1.450733496332518E11   -2.241633681070244E1   9.859505266973129E1  -9.479875610699287   9.718392481866127E1  -9.511583685175083   6.341195194493145E1  -2.195573945489119E1   1.577457166890353E2  
 1.450855745721271E11   -2.438970715102558E1   1.078263475391885E2  -9.750735066611924   4.984398057460503E1  -9.774008654916010   1.597495838003338E1  -1.997839024578883E1   1.372005520481102E2  
 1.450977995110024E11   -2.052794684310429E1   1.203855653905957E2  -9.651867535530332   4.422004075736958  -9.676367026140795  -3.005036730871443E1  -2.293497367603196E1   1.028561016822535E2  
 1.451100244498778E11   -1.832940387331946E1   1.012108290612204E2  -9.465495596211367  -4.389401384720970E1  -9.494776494261352  -7.809747675504329E1  -3.557025877434101E1   1.364363022255863E2  
 1.451222493887531E11   -1.891596644651168E1   7.965493933851796E1  -9.533411262116994  -9.219841218205512E1  -9.557144688419314  -1.265698448107706E2  -2.371582541799863E1   1.796990066229763E2  
 1.451344743276284E11   -2.276213640923481E1   7.163567036105332E1  -9.649369517020094  -1.386437297493340E2  -9.675046764792896  -1.729030391424791E2  -2.058536159941170E1   1.476146787814323E2  
 1.451466992665037E11   -2.359760990421419E1   9.358759820746609E1  -9.409543561617333   1.746263407194721E2  -9.441048614977628   1.400808683005016E2  -2.314886150771988E1   1.278833264531089E2  
 1.451589242053790E11   -2.166018773208607E1   9.801578504237251E1  -9.330190437280388   1.255901317945105E2  -9.355178238449490   9.110594631125667E1  -2.415536811787547E1   1.465943538336391E2  
 1.451711491442543E11   -2.092999119422907E1   9.253853991898758E1  -9.491474704276129   7.715288760962442E1  -9.526952238634836   4.274864172153297E1  -2.017331319017867E1   1.449666029744828E2  
 1.451833740831296E11   -2.047979177206198E1   9.541170616913598E1  -9.684099093980262   3.089728763931020E1  -9.707999590365484  -3.596500855064653  -1.830118044539852E1   1.165822751364017E2  
 1.451955990220049E11   -1.858394881704392E1   8.617221284382933E1  -9.485762447021333  -1.598611397299387E1  -9.513706577478011  -5.027909902202453E1  -2.088394193041867E1   8.444321010593252E1  
 1.452078239608802E11   -1.870357757420862E1   6.992175703006508E1  -9.435662170485946  -6.449689338394656E1  -9.487688914254921  -9.909062355025253E1  -2.860953813218217E1   8.775787186403352E1  
 1.452200488997555E11   -2.118000139713684E1   5.877716955855008E1  -9.646109382049735  -1.121816932696575E2  -9.670571888995447  -1.464444875651098E2  -2.421386345941846E1   1.301761363858729E2  
 1.452322738386308E11   -2.253412662017627E1   7.843294826347898E1  -9.571865110999120  -1.580186828394031E2  -9.607134173969868   1.677652141947110E2  -2.180481103981249E1   9.846148154800108E1  
 1.452444987775061E11   -2.009556786117704E1   7.740446573214643E1  -9.371394524430713   1.537125051438917E2  -9.408773467991413   1.195535109352140E2  -2.615016217050297E1   6.958307203497688E1  
 1.452567237163814E11   -1.973744264583244E1   6.411730835551371E1  -9.422300275236102   1.042561322036881E2  -9.464109581921099   7.089795760189470E1  -3.665953561623989E1   1.414433750687726E2  
 1.452689486552567E11   -2.187159375375344E1   5.703181768344030E1  -9.691238235717833   5.697556269187787E1  -9.739824814313797   2.326118572421694E1  -2.337616638717046E1   1.502664665916287E2  
 1.452811735941320E11   -2.167107862896357E1   7.540963091978684E1  -9.707105582002079   1.141571793676609E1  -9.728206582165765  -2.241268949596799E1  -2.105399090225366E1   1.118689223128870E2  
 1.452933985330073E11   -1.958229552389108E1   6.644520006280295E1  -9.501190243532053  -3.682819798722974E1  -9.532361286126070  -7.050701360967599E1  -2.520100943608066E1   8.853653245616592E1  
 1.453056234718826E11   -1.965922982469073E1   5.083395338592664E1  -9.633431596174736  -8.595551210801962E1  -9.673052340183041  -1.191463790060445E2  -2.785915077940315E1   1.360367449312086E2  
 1.453178484107579E11   -2.313898974260235E1   4.233942074858597E1  -9.967997312226316  -1.322134098980779E2  -1.001837460300069E1  -1.651934738709913E2  -2.058964316920936E1   1.289336983708664E2  
 1.453300733496332E11   -2.292270849146717E1   7.273608136333363E1  -9.766567909100150  -1.772805152918585E2  -9.794825717386695   1.499694548644318E2  -2.012827056284584E1   9.439271572936329E1  
 1.453422982885085E11   -2.026889988662270E1   6.599599756830176E1  -9.499819036272907   1.340538741013492E2  -9.547131828341124   1.016730622291290E2  -2.480245291779898E1   8.222905358529188E1  
 1.453545232273839E11   -1.992499240313831E1   5.495486659154484E1  -9.638994959099517   8.486734893044346E1  -9.666514842197721   5.274371123266127E1  -2.434056251130632E1   1.243693791549352E2  
 1.453667481662592E11   -2.114206547302697E1   5.405378789148333E1  -9.863626941247803   3.845417825744190E1  -9.909072867118534   6.804033399852334  -1.866566874401543E1   1.097705217628874E2  
 1.453789731051345E11   -1.921655504324366E1   5.607958449133007E1  -9.632640034532795  -7.735192725505835  -9.655906272226766  -3.917676021948108E1  -1.812051674415815E1   7.820921672909087E1  
 1.453911980440098E11   -1.864885367395716E1   3.863116203955681E1  -9.488454358563361  -5.678079687701254E1  -9.520196555523299  -8.782197538891944E1  -2.093625885951061E1   5.755163301485150E1  
 1.454034229828851E11   -2.049942382268142E1   2.353368962431479E1  -9.661659318719401  -1.047716699238302E2  -9.687913038792823  -1.360556557793061E2  -2.423011739139446E1   7.453168051921433E1  
 1.454156479217604E11   -2.465578429458138E1   3.632712669436538E1  -9.770653108332400  -1.507671160614993E2  -9.822087433624352   1.780390485553173E2  -2.007721664175494E1   7.520989135288474E1  
 1.454278728606357E11   -2.085105578198618E1   5.086711391094168E1  -9.539295547440768   1.616981082551179E2  -9.584161919488249   1.310881763605705E2  -1.962373683396756E1   4.539097096242885E1  
 1.454400977995110E11   -1.931436957765565E1   3.021147512413181E1  -9.538087646581477   1.127974234588799E2  -9.569716335032576   8.253340060043287E1  -2.308737005202431E1   1.590671531206135E1  
 1.454523227383863E11   -2.131748101642424E1   3.179200526641123  -9.789977146793406   6.508176268101688E1  -9.830561612309946   3.485450189180827E1  -3.489439956220311E1   3.487200119170196E1  
 1.454645476772616E11   -3.140459046144706E1   6.388075163212207  -9.759266635159502   2.008196393218746E1  -9.786431912024820  -1.004236987214977E1  -2.622204483316566E1   6.756890066529314E1  
 1.454767726161369E11   -2.609780538649380E1   7.150261835289123E1  -9.455902998826302  -2.800203450307828E1  -9.483176935093582  -5.786862525409148E1  -2.823842996564661E1   3.525827101000021E1  
 1.454889975550122E11   -2.243681747471185E1   6.126686392421434E1  -9.484470499178624  -7.711892799694391E1  -9.502603533603551  -1.069075950414480E2  -4.339043608426334E1   1.287647529892825E2  
 1.455012224938875E11   -2.281452504079969E1   4.974086808362186E1  -9.786364552115733  -1.245883304523622E2  -9.813872783033347  -1.545833743366370E2  -2.372899532662936E1   1.310954080821111E2  
 1.455134474327629E11   -2.212321662945541E1   6.611043877990007E1  -9.754357287836291  -1.695515086813128E2  -9.771522525108967   1.603018753905971E2  -2.006608277503675E1   8.899707344368983E1  
 1.455256723716382E11   -1.928127039653041E1   5.662017975665973E1  -9.470309382121647   1.423186051154827E2  -9.477373281365784   1.123183719311152E2  -2.225464908682024E1   5.514071646522463E1  
 1.455378973105135E11   -1.887475281662351E1   4.345546615847820E1  -9.466096465709731   9.350299532596273E1  -9.507182938417657   6.342687866660818E1  -3.045507239598270E1   6.550772556737118E1  
 1.455501222493888E11   -1.973004703479976E1   3.629662672661117E1  -9.721435646166198   4.646811810018942E1  -9.762678747907835   1.608855769307203E1  -2.253811626921607E1   1.112282424456266E2  
 1.455623471882641E11   -1.894343884037181E1   4.219745999052120E1  -9.612124201186186   5.342506098302547E-1  -9.631257152038595  -2.978618224436508E1  -1.891456353648713E1   8.007850772371400E1  
 1.455745721271394E11   -1.766396904456930E1   2.973748512570522E1  -9.428260172858984  -4.794758961746867E1  -9.456092278840751  -7.805993310898960E1  -2.015436975509412E1   5.261793712563198E1  
 1.455867970660147E11   -1.818134046711827E1   1.688843674012590E1  -9.547226150876142  -9.672233605617220E1  -9.590299784111029  -1.267794344815365E2  -2.496370397190484E1   5.549559387689124E1  
 1.455990220048900E11   -2.023763151517463E1   1.216273074602454E1  -9.790893825473697  -1.429672327832185E2  -9.814083871141774  -1.729528000463026E2  -2.086110118533721E1   8.292663753665714E1  
 1.456112469437653E11   -1.939530836868650E1   2.357920343860802E1  -9.581906015633178   1.707145347684153E2  -9.596003743331638   1.405848457324208E2  -1.816928601839129E1   6.017843572932495E1  
 1.456234718826406E11   -1.794189541740167E1   8.837760902248064  -9.474286006568043   1.220886959107926E2  -9.484516853018695   9.165098420841261E1  -1.889579813713306E1   3.670183581403025E1  
 1.456356968215159E11   -1.923756861965137E1  -1.198638732946625E1  -9.650049053194755   7.428729241616273E1  -9.693502076303595   4.342775347551637E1  -2.265583682819503E1   3.156393173933449E1  
 1.456479217603912E11   -2.553501444292310E1  -1.508973641135251E1  -9.756255938916999   2.869702020360041E1  -9.772517144669994  -2.190764303010092  -2.108096748465144E1   4.946135620521559E1  
 1.456601466992665E11   -2.296114342033940E1   3.269364306835044E1  -9.469476144698005  -1.820224690090572E1  -9.486506955814400  -4.945304740659237E1  -1.972997221908426E1   3.055271774061182E1  
 1.456723716381418E11   -1.943176395791192E1   1.826536145209765E1  -9.427861079587173  -6.767238112709954E1  -9.449498998070979  -9.875797341607274E1  -2.191938907192094E1   9.281101642774935  
 1.456845965770171E11   -1.939256963854864E1  -3.686726115861199  -9.695839078179768  -1.153652634688924E2  -9.724242343864962  -1.468586891453391E2  -2.963990572885923E1   2.579514053590509E1  
 1.456968215158924E11   -2.333539275027192E1  -1.220148622682727E1  -9.698063572857379  -1.604779802035246E2  -9.724770673139497   1.677222007610659E2  -2.365329462553329E1   5.924315252296431E1  
 1.457090464547677E11   -2.365789483745655E1   7.082412329597339  -9.388820981682324   1.516693324313784E2  -9.423122610816389   1.199245246757519E2  -2.251793909421469E1   4.426300751804550E1  
 1.457212713936430E11   -2.326498469939375E1   6.006153188807069  -9.408855900983607   1.023226250233717E2  -9.449514890040510   7.048849599709173E1  -2.439141673327055E1   4.458881427145559E1  
 1.457334963325183E11   -2.497958629199783E1   9.423051684186698  -9.742989778995685   5.467958401660877E1  -9.761803819438141   2.272915957181828E1  -2.194525313643134E1   7.184286186536791E1  
 1.457457212713937E11   -2.260903395700875E1   4.336495112145155E1  -9.781313717089608   9.445356519719015  -9.803783915815682  -2.297256754011671E1  -1.727241797397695E1   5.553292584582699E1  
 1.457579462102690E11   -1.771197714979394E1   2.674625532203989E1  -9.604886748259991  -3.801478347369867E1  -9.628824703253416  -7.089538446480948E1  -1.666898826518606E1   2.962321719212562E1  
 1.457701711491443E11   -1.695807446609040E1  -2.870931398028910E-2  -9.719297058659706  -8.660575691513905E1  -9.748717383226422  -1.192531606253647E2  -1.909853872775096E1   1.097519266213387E1  
 1.457823960880196E11   -1.992282992005440E1  -2.342121761155674E1  -9.934785870969050  -1.324985656137484E2  -9.967121864535832  -1.649486276012968E2  -2.096613743274236E1   2.764719900761925E1  
 1.457946210268949E11   -2.399624520017533E1   5.487165431678211  -9.632468074250062  -1.784090115541485E2  -9.648850145454452   1.486531690609290E2  -1.846822463334747E1   2.403012842790917E1  
 1.458068459657702E11   -1.935061603014206E1   1.154728072568666E1  -9.486906845310134   1.326964647107744E2  -9.517939275338637   9.946615940208446E1  -1.828010438651526E1   7.556157121227997  
 1.458190709046455E11   -1.788500595113856E1  -9.178528914175814  -9.690062390099685   8.434273682225475E1  -9.718876362092763   5.031650928139842E1  -2.126370332482591E1  -4.549286658042961  
 1.458312958435208E11   -2.062900775221797E1  -2.970621525256554E1  -9.868062265457848   3.909332693716434E1  -9.904860294145001   5.005401069382572  -2.217661433925905E1   2.452564970058030E1  
 1.458435207823961E11   -2.285695265363471E1  -2.088902410786132  -9.550499962007143  -7.577103018981827  -9.601290656153124  -4.199622625667691E1  -1.894251481095229E1   1.895280604660905E1  
 1.458557457212714E11   -1.902819330284774E1  -5.495525252424253  -9.482511139756605  -5.651861753050527E1  -9.507664163616619  -9.100397831827854E1  -1.829396156535756E1   3.088827576586494  
 1.458679706601467E11   -1.861112711395710E1  -3.087172314446314E1  -9.728428454391565  -1.047648313612633E2  -9.766065517299138  -1.393343855022499E2  -2.034558139270661E1  -9.013274321497660  
 1.458801955990220E11   -2.401710547992264E1  -5.697330487562542E1  -9.832256490627147  -1.499704902802546E2  -9.853136441426669   1.755274075948400E2  -2.067932295146320E1   5.494921983265875  
 1.458924205378973E11   -2.797209876430655E1   1.876028222579126E1  -9.537725834888692   1.627695226823719E2  -9.547867974187598   1.281180769676569E2  -1.893604464783101E1  -5.209245815811654  
 1.459046454767726E11   -2.042667722345749E1   1.438757310072828E1  -9.513517616039289   1.137540059570538E2  -9.540424103777212   7.902192859753228E1  -2.011069452430247E1  -2.468246177805605E1  
 1.459168704156479E11   -1.861157553042115E1  -9.499239871136746  -9.802257289242402   6.626648145966436E1  -9.843861489588925   3.136051658008644E1  -2.623226282704810E1  -2.740819531021737E1  
 1.459290953545232E11   -2.100013796345145E1  -2.273786310756010E1  -9.737801850206068   2.114106557999800E1  -9.787869230184915  -1.418354065688257E1  -2.431011150299802E1   2.187654611601482E1  
 1.459413202933985E11   -2.066633787067279E1  -1.201466054673500E1  -9.470861236992834  -2.707795448754187E1  -9.511295619540830  -6.202541463626128E1  -2.095770024695836E1   1.592249193539335E1  
 1.459535452322738E11   -1.940200786579939E1  -2.316040644443033E1  -9.510829496934496  -7.595999204183423E1  -9.558560672807111  -1.107950225421907E2  -2.037182527943398E1   5.508564354274545  
 1.459657701711491E11   -2.105936699159991E1  -4.360050911435878E1  -9.780617306672891  -1.231153395955941E2  -9.825768105173468  -1.581193468891076E2  -2.044434814704285E1   1.261510145770923E1  
 1.459779951100244E11   -2.918029875000961E1  -1.552265292598989E1  -9.680361837675264  -1.691987458564606E2  -9.703564796099695   1.561060919796873E2  -1.740880940858515E1   8.710532805402822  
 1.459902200488998E11   -2.032894486557238E1   1.722220978740506E1  -9.595594612050725   1.426199411670684E2  -9.617551364404791   1.076376094518968E2  -1.615692634380845E1  -9.397058180575835  
 1.460024449877751E11   -1.674821035443854E1  -7.112568638606533  -9.764274669104337   9.455770691698277E1  -9.790307302025886   5.970257738313870E1  -1.702432121198992E1  -2.928567489046087E1  
 1.460146699266504E11   -1.731839469792602E1  -3.506376051104814E1  -9.819219752807522   4.911047444278687E1  -9.847901858157378   1.431613154188401E1  -1.934520878284314E1  -3.285373454510341E1  
 1.460268948655257E11   -2.129806142916623E1  -3.859985165606575E1  -9.486226631918592   1.573881980701825  -9.513569013712958  -3.292501010978371E1  -1.978166368962207E1  -3.203330964041547E1  
 1.460391198044010E11   -2.060328322761126E1  -1.510360887127635E1  -9.421052490040564  -4.757860848311842E1  -9.461923737467753  -8.222705373154051E1  -1.958453498926006E1  -3.682711758313317E1  
 1.460513447432763E11   -1.758648275762962E1  -2.052440617837729E1  -9.679326971306255  -9.614336257090652E1  -9.725321196782177  -1.306045296903983E2  -2.091643589634424E1  -5.443851432032654E1  
 1.460635696821516E11   -1.756200496317074E1  -3.855131818145438E1  -9.821849861322589  -1.415884377608049E2  -9.872232228727730  -1.759325531872910E2  -2.684587654188465E1  -4.616158943352867E1  
 1.460757946210269E11   -1.853107106781620E1  -3.714914655633015E1  -9.558885025377494   1.712836861076098E2  -9.585614351158249   1.368364999450874E2  -2.553463116261909E1  -6.456107708641909  
 1.460880195599022E11   -1.687802048655013E1  -3.964535480117588E1  -9.546907265342874   1.224138386603198E2  -9.605296257034564   8.793633023855104E1  -2.145515607340677E1  -4.765804275420648  
 1.461002444987775E11   -1.577690752954565E1  -5.745273093834222E1  -9.868522069207730   7.453296834004961E1  -9.924289557604180   4.018044921613949E1  -2.054353409909036E1  -1.757842848342374E1  
 1.461124694376528E11   -1.749161452178943E1  -8.408206007257000E1  -9.874467358574277   2.973380043062389E1  -9.917432262747859  -4.494350071994008  -1.965134492638564E1  -1.940536089617714E1  
 1.461246943765281E11   -2.330908528111907E1  -8.805916293132735E1  -9.553169696378088  -1.815771708002536E1  -9.617843220209139  -5.223676665138554E1  -1.904497071500310E1  -3.528272674206070E1  
 1.461369193154034E11   -2.330484213800342E1  -5.068659820408551E1  -9.614702054513018  -6.710722958973135E1  -9.657263596288690  -1.010973222216186E2  -2.039525953110553E1  -5.062792884393550E1  
 1.461491442542787E11   -2.014073312350798E1  -6.328273949999178E1  -9.913882987699495  -1.141664541762024E2  -9.963388615579806  -1.477297685539814E2  -2.535852800013424E1  -5.511174389073572E1  
 1.461613691931540E11   -2.357955462992321E1  -8.278263010523970E1  -9.690856405991015  -1.598113206550513E2  -9.743618155529873   1.668853914298295E2  -2.438811448889485E1  -1.618296917637704E1  
 1.461735941320293E11   -2.610641811969568E1  -4.638794884742327E1  -9.461600310477314   1.514855868007898E2  -9.525679164040245   1.181495044514646E2  -2.162396124195288E1  -2.104628812996403E1  
 1.461858190709046E11   -2.134303196577088E1  -4.350963024080826E1  -9.601050683263452   1.025886768680224E2  -9.678001704775927   6.941062892402319E1  -2.150765958196604E1  -3.389091754465025E1  
 1.461980440097799E11   -2.041017944174728E1  -7.210845854954407E1  -9.855981992242679   5.688931767543339E1  -9.895658801141511   2.355528694736288E1  -2.358277959539661E1  -2.517358539350549E1  
 1.462102689486552E11   -2.697560479996414E1  -9.229710263827488E1  -9.566541923413366   1.042151990003402E1  -9.624269580153806  -2.289010570137516E1  -2.054373101949224E1  -1.872373341704616E1  
 1.462224938875306E11   -2.731332732446541E1  -1.314357874708040E1  -9.464975858202125  -3.849756621024648E1  -9.503324364863021  -7.176640491920911E1  -1.910656365989735E1  -3.314133790223060E1  
 1.462347188264059E11   -2.072905691383005E1  -2.585121847922085E1  -9.641322557309241  -8.708058740125696E1  -9.691540008051241  -1.199941259362687E2  -1.993013498235668E1  -5.272716770987187E1  
 1.462469437652812E11   -2.039878551879762E1  -5.145866988055108E1  -9.717842053588985  -1.328529534615329E2  -9.767215353215670  -1.655098465973996E2  -2.389241928716623E1  -5.338097052650338E1  
 1.462591687041565E11   -2.257546994958626E1  -4.556734371490942E1  -9.461985837335050   1.790768252014154E2  -9.529747442456351   1.467510574416982E2  -2.449368281458790E1  -3.246370954272262E1  
 1.462713936430318E11   -1.999379546484379E1  -3.664889946914656E1  -9.479822451211962   1.299514543973501E2  -9.533412794099316   9.778678178684413E1  -2.219471064134476E1  -2.569497953249175E1  
 1.462836185819071E11   -1.763223716912878E1  -5.135348562116297E1  -9.769725149333555   8.227148474828059E1  -9.829167147167672   4.943962548611550E1  -2.182322100832485E1  -3.684821050322458E1  
 1.462958435207824E11   -1.860257156253884E1  -7.510218498183063E1  -9.854711824981415   3.685243250017416E1  -9.894387122963178   4.774579913846074  -2.269066362658451E1  -2.873378414441389E1  
 1.463080684596577E11   -2.236671890035442E1  -6.655181515160527E1  -9.601229002582969  -1.121902063841787E1  -9.648472530902843  -4.314116857182039E1  -2.158899669151886E1  -2.588580802446602E1  
 1.463202933985330E11   -1.885268131011316E1  -4.894431033953776E1  -9.748000320272697  -6.036928432039473E1  -9.792084027834603  -9.214476595743255E1  -2.012289248820320E1  -2.788441072957956E1  
 1.463325183374083E11   -1.565985463377226E1  -7.026496027097915E1  -1.015546239752197E1  -1.065543348547588E2  -1.020742519867799E1  -1.383636380425117E2  -1.986505032775769E1  -3.390027030948409E1  
 1.463447432762836E11   -1.631328532531433E1  -1.018843758548427E2  -9.968596002070671  -1.511685566123705E2  -1.001050447586567E1   1.773211724830592E2  -1.819750770501533E1  -3.830205217553111E1  
 1.463569682151589E11   -2.049265851077439E1  -1.238629245046479E2  -9.639995077968990   1.610917834006061E2  -9.684540577307518   1.291783261865587E2  -1.809151787728964E1  -5.838710937499947E1  
 1.463691931540342E11   -2.668613056824367E1  -1.044130728352772E2  -9.641630707503648   1.121302169906440E2  -9.690156587871229   8.074383500905759E1  -2.056844052939295E1  -7.486357711156232E1  
 1.463814180929096E11   -2.313537339251644E1  -8.353322144201349E1  -9.805436599938611   6.541954663784166E1  -9.841958366755545   3.374774652552304E1  -2.532324027703870E1  -6.832200834763582E1  
 1.463936430317849E11   -2.424548562167700E1  -1.012273470437028E2  -9.600538093572055   1.828238359705344E1  -9.649493054486857  -1.342261433314914E1  -2.448492823802999E1  -4.529325512738811E1  
 1.464058679706602E11   -2.698163317936125E1  -7.739342425687728E1  -9.554213043468682  -3.054002901203369E1  -9.603776051477569  -6.208692293471692E1  -2.425978342812740E1  -4.559207597003951E1  
 1.464180929095355E11   -2.238156462953666E1  -6.901448886717948E1  -9.824573443806715  -7.855026396615635E1  -9.878594034150794  -1.100338492519422E2  -2.612891930275288E1  -3.727163259810940E1  
 1.464303178484108E11   -2.116555982125192E1  -1.021419107608382E2  -9.886787038155193  -1.238008405704854E2  -9.938492164576768  -1.556547608124712E2  -2.327762811244020E1  -4.205536150294743  
 1.464425427872861E11   -2.867293062894975E1  -1.402766832546760E2  -9.648478712200511  -1.715601214019016E2  -9.692891291849888   1.571881229191977E2  -1.929614827863351E1  -1.400334423339933E1  
 1.464547677261614E11   -2.807820806605590E1  -4.015139540727326  -9.667704213795840   1.400737989360865E2  -9.711283888251963   1.081064558691199E2  -1.797049882728089E1  -2.860933715668404E1  
 1.464669926650367E11   -1.977069588415627E1  -4.048717822412815E1  -9.933882479066462   9.245991246862894E1  -9.993489960502641   6.111031001907256E1  -1.850428434641495E1  -4.055672467695907E1  
 1.464792176039120E11   -1.936403430007898E1  -7.942758574690643E1  -9.856375542445885   4.746228984785384E1  -9.898950667539500   1.609679650631988E1  -1.860023124593859E1  -3.675514750424759E1  
 1.464914425427873E11   -2.449572465472755E1  -9.423154355553449E1  -9.581763844995310  -4.580091649310765E-1  -9.631697130939822  -3.203200937777379E1  -1.770924146468036E1  -4.293107443267228E1  
 1.465036674816626E11   -2.433867751749559E1  -4.458580914632502E1  -9.635197752387352  -4.925531991522538E1  -9.698656582049523  -8.134045553714920E1  -1.766053548497832E1  -5.012048696861697E1  
 1.465158924205379E11   -1.828563430550386E1  -5.796690667834051E1  -9.936242118323410  -9.642829099788865E1  -9.999205666404643  -1.279479264271976E2  -1.851584332402575E1  -5.403664542354333E1  
 1.465281173594132E11   -1.794824747727781E1  -9.005431688607604E1  -9.805898536447728  -1.416929186189803E2  -9.837178299561273  -1.736427327051435E2  -1.776017067296954E1  -4.901315639868992E1  
 1.465403422982885E11   -2.182332299063702E1  -1.040792565706969E2  -9.573581885027840   1.700716642898003E2  -9.619242350095936   1.382412635454339E2  -1.704913141384367E1  -5.791502793211439E1  
 1.465525672371638E11   -2.284099817699937E1  -7.182060362518423E1  -9.671310924999171   1.214314636550324E2  -9.718324862199887   8.910914795596719E1  -1.755089402447485E1  -6.536724466153406E1  
 1.465647921760391E11   -1.816915529250293E1  -8.091292206141880E1  -9.868984203686861   7.528999934486126E1  -9.913433704509860   4.304895506289087E1  -1.862277955316565E1  -6.449014771771539E1  
 1.465770171149144E11   -1.836024000875769E1  -1.097500994301890E2  -9.646773801126907   2.897379468327958E1  -9.700714042504878  -3.257369491490405  -1.734164322921023E1  -6.093962094964297E1  
 1.465892420537897E11   -2.273747565952330E1  -1.263798657512513E2  -9.539256468545903  -1.966197106559172E1  -9.566589093676924  -5.192000127559956E1  -1.670771836464938E1  -7.233828425850346E1  
 1.466014669926650E11   -2.571668240639233E1  -8.298644056204796E1  -9.721390947785228  -6.771378903547843E1  -9.765521644274672  -1.003662012630057E2  -1.777724550319456E1  -8.316539451494506E1  
 1.466136919315403E11   -2.002535924913733E1  -8.860140275332249E1  -9.804355343946469  -1.132313771116678E2  -9.846720389124917  -1.459138079485408E2  -1.994872609807931E1  -7.780572144438253E1  
 1.466259168704157E11   -2.065565801218786E1  -1.155229878865644E2  -9.545899261491275  -1.603232609280629E2  -9.589267662101666   1.668108003091556E2  -1.844003992457148E1  -7.062571861980725E1  
 1.466381418092910E11   -2.631382690281649E1  -1.179271831836093E2  -9.531477920676485   1.509158266798344E2  -9.555242873211045   1.176388846467017E2  -1.786465971733746E1  -7.999463968776237E1  
 1.466503667481663E11   -2.356016976892248E1  -6.851125987570597E1  -9.753517028771125   1.037413126076644E2  -9.796627542048272   7.011059295390386E1  -1.919420569402626E1  -8.764168136562023E1  
 1.466625916870416E11   -1.952388831697247E1  -8.888966527899382E1  -9.625784004525745   5.833390510971614E1  -9.672856045573708   2.451283807210386E1  -1.976710458461581E1  -7.467618725830396E1  
 1.466748166259169E11   -2.045491241683592E1  -1.070423019265759E2  -9.419220151656081   1.002710608909359E1  -9.451470187904455  -2.365541489175196E1  -1.811871087655116E1  -7.901487145665534E1  
 1.466870415647922E11   -2.243490840970981E1  -9.963044651511842E1  -9.448194050559273  -3.855770702936901E1  -9.511567593198551  -7.272224567846089E1  -1.859266423550140E1  -8.765758101917197E1  
 1.466992665036675E11   -1.936245356218821E1  -9.273183021767827E1  -9.645780245678592  -8.538995455450848E1  -9.685494683148386  -1.196326956921000E2  -2.018637670966457E1  -8.680620144086390E1  
 1.467114914425428E11   -1.791791555693340E1  -1.136958031818630E2  -9.496915056973810  -1.320156413171002E2  -9.529475534948478  -1.660436456881380E2  -1.886638699660056E1  -7.215427465836541E1  
 1.467237163814181E11   -1.950427484900268E1  -1.330206792884207E2  -9.377316376191315   1.798490013084494E2  -9.429320157884787   1.453198145330013E2  -1.661144959793080E1  -8.295070049456730E1  
 1.467359413202934E11   -2.338713646443945E1  -1.323764077264503E2  -9.495782793245793   1.312299719881448E2  -9.537949654622171   9.697627855989920E1  -1.656823968246149E1  -9.934414309240889E1  
 1.467481662591687E11   -2.194541125933360E1  -1.110357939444239E2  -9.681358197621275   8.480235017627203E1  -9.716236136748300   4.990609987017778E1  -1.848997663622743E1  -1.115809120235767E2  
 1.467603911980440E11   -2.086105665403922E1  -1.244195834569211E2  -9.490488193590116   3.832606579352824E1  -9.533062172238115   3.425219148277296  -2.012585605725477E1  -1.011461512063667E2  
 1.467726161369193E11   -2.290854531240137E1  -1.302891960037366E2  -9.424825690228769  -1.042442153435930E1  -9.474973177590673  -4.532569330820736E1  -1.883514152891043E1  -1.028611786374463E2  
 1.467848410757946E11   -2.354318296684896E1  -1.089513256153081E2  -9.610727896849985  -5.857570246216169E1  -9.670101196036772  -9.332311823111866E1  -1.923169604107156E1  -1.148319337117052E2  
 1.467970660146699E11   -1.956791560889678E1  -1.126427551638648E2  -9.739347295544453  -1.038457015629139E2  -9.780843975816788  -1.392262178448064E2  -2.259652013658671E1  -1.191750361059389E2  
 1.468092909535452E11   -1.940293934108415E1  -1.346910416012610E2  -9.498172741810242  -1.508828210741521E2  -9.546785681923828   1.733810848270935E2  -2.205852506743137E1  -9.305973020202342E1  
 1.468215158924205E11   -2.206650419726206E1  -1.437900748596628E2  -9.475410470103181   1.605663336564007E2  -9.521323476378276   1.244881268687502E2  -1.964654042064000E1  -1.028318902945766E2  
 1.468337408312958E11   -2.263887023248033E1  -1.215942512327028E2  -9.719269469472101   1.130761541924938E2  -9.769628674385341   7.693269576830492E1  -2.065961724611525E1  -1.228673315447388E2  
 1.468459657701711E11   -1.899061657681100E1  -1.326540142850798E2  -9.683196135728549   6.756479104438532E1  -9.722456261105641   3.089264785691269E1  -2.728699432678917E1  -1.168445547196455E2  
 1.468581907090465E11   -1.971374738920436E1  -1.585967444765809E2  -9.482230116554341   1.954967314490165E1  -9.534251639673800  -1.697429205294986E1  -2.281843657458194E1  -7.623343906308109E1  
 1.468704156479218E11   -2.463669989923737E1  -1.732654992301763E2  -9.563749979589353  -2.909260250778542E1  -9.624897379041148  -6.573337939830786E1  -1.961880693175130E1  -9.362655126411329E1  
 1.468826405867971E11   -2.561010055274637E1  -1.174277227609315E2  -9.822525562821467  -7.549778111845791E1  -9.867105821786044  -1.119774515728228E2  -2.099255144402142E1  -1.167635106183157E2  
 1.468948655256724E11   -2.004331758220762E1  -1.372216887269384E2  -9.621629700880753  -1.215079626171179E2  -9.677112522428743  -1.576953691331150E2  -2.552790891885256E1  -9.345612632285595E1  
 1.469070904645477E11   -2.039606231127076E1  -1.686127575110110E2  -9.459324413672002  -1.699540275445482E2  -9.507871848471707   1.534697351668494E2  -2.040746016063666E1  -7.925014292006644E1  
 1.469193154034230E11   -2.611649860546580E1   1.596544491608161E2  -9.578999055262228   1.415222790034754E2  -9.633860833587635   1.051653499656828E2  -1.816144608415462E1  -9.862927066167873E1  
 1.469315403422983E11   -3.192903820777379E1  -9.968126003658163E1  -9.722927633519923   9.534028867353503E1  -9.770469401518069   5.935473050351475E1  -1.948172334372151E1  -1.193494019168063E2  
 1.469437652811736E11   -2.400442488078037E1  -1.194471611650223E2  -9.453023814666953   4.839129813006957E1  -9.508645580736637   1.244964695391493E1  -2.144356354440030E1  -1.120665436525138E2  
 1.469559902200489E11   -2.404519524058507E1  -1.360017311682520E2  -9.369622753180430  -5.867428682023308E-1  -9.412378229687732  -3.677900985503356E1  -1.993242736961403E1  -1.154455102313992E2  
 1.469682151589242E11   -2.510879509785516E1  -1.238390304801431E2  -9.607467363381625  -4.891664724480657E1  -9.666814294288876  -8.484436057852433E1  -2.030075255520247E1  -1.361373957310583E2  
 1.469804400977995E11   -2.028453106753790E1  -1.227009564851854E2  -9.781010686907187  -9.471669039790051E1  -9.828863069186639  -1.304716823926563E2  -2.631386355782587E1  -1.666660401954676E2  
 1.469926650366748E11   -1.876826137310363E1  -1.529577325719590E2  -9.545400393735399  -1.416661057858811E2  -9.605956269817760  -1.768749754343452E2  -2.934876301579074E1  -5.176400129252873E1  
 1.470048899755501E11   -2.116142578138703E1   1.765590190919831E2  -9.502894528442340   1.699289885293153E2  -9.554849494556276   1.349315574489509E2  -2.113219100066358E1  -7.633358769607770E1  
 1.470171149144254E11   -3.131849975274153E1   1.728177553127445E2  -9.664991472591753   1.225460088247253E2  -9.726170213561767   8.702632382366356E1  -2.023438116675986E1  -1.044646548108284E2  
 1.470293398533007E11   -2.479000587085517E1  -1.222052195338049E2  -9.589018478755842   7.612019472931785E1  -9.638521335190601   4.140615079616708E1  -2.424019794665948E1  -1.099010265572048E2  
 1.470415647921760E11   -2.172658426939501E1  -1.466867346227770E2  -9.370974646663548   2.846478984515031E1  -9.433964637239059  -6.597841083371623  -2.204022785753762E1  -8.501224766626439E1  
 1.470537897310513E11   -2.347235754789647E1  -1.686975739974095E2  -9.407589104457317  -2.046294924299371E1  -9.470275753862893  -5.548037061800618E1  -1.923987923986088E1  -9.874980812851132E1  
 1.470660146699266E11   -2.742135226982793E1  -1.462021129373896E2  -9.602794606306629  -6.767029975052658E1  -9.659943159747026  -1.022740937856322E2  -1.961833852861497E1  -1.218236297643605E2  
 1.470782396088019E11   -2.258755337381904E1  -1.403640836866184E2  -9.470243253483115  -1.140789467403013E2  -9.533510226242617  -1.481010797601032E2  -2.422083001335464E1  -1.241804099964980E2  
 1.470904645476773E11   -2.186073097860126E1  -1.604736296418884E2  -9.345206350614772  -1.628252042351963E2  -9.412986623214628   1.632231505589777E2  -2.260243154613653E1  -9.779971396067737E1  
 1.471026894865526E11   -2.441986519301488E1  -1.711689780420659E2  -9.478130004262392   1.486588215084467E2  -9.537143825532088   1.149242099717023E2  -2.013394045851989E1  -1.115214451292800E2  
 1.471149144254279E11   -2.405512250293731E1  -1.438315842160310E2  -9.673564213657146   1.018718285941481E2  -9.735618784796609   6.863571171127531E1  -2.180611581907214E1  -1.377716032677734E2  
 1.471271393643032E11   -2.013976326615797E1  -1.619477694148013E2  -9.504534063477546   5.522109943905723E1  -9.573522000163830   2.211251689248350E1  -3.160788148901219E1  -1.141444728956813E2  
 1.471393643031785E11   -2.035323786700993E1   1.667228578847458E2  -9.443187940288048   7.029657338353497  -9.522253993674489  -2.608762700679813E1  -2.288149404003709E1  -6.828068045008727E1  
 1.471515892420538E11   -2.562464937285777E1   1.294058025023428E2  -9.620221420246761  -4.112970639033942E1  -9.683627580576729  -7.409283054545179E1  -1.916368156007013E1  -8.897232084155777E1  
 1.471638141809291E11   -3.353772882008653E1  -1.046154362709654E2  -9.739144825182040  -8.700392876483143E1  -9.836520903476414  -1.197344320593850E2  -2.005608782493258E1  -1.083255753667011E2  
 1.471760391198044E11   -2.284810763391946E1  -1.396763090516568E2  -9.513913589793830  -1.340551015669326E2  -9.579286553614724  -1.667770118053510E2  -2.088127560041530E1  -9.526608963555509E1  
 1.471882640586797E11   -2.136438474591926E1  -1.741982617224682E2  -9.487606375681741   1.771625048372685E2  -9.550691350333221   1.450021522708616E2  -1.771515547728539E1  -9.875652675270862E1  
 1.472004889975550E11   -2.485286605854215E1   1.537894342105349E2  -9.686287253514379   1.296432591488140E2  -9.765438382625096   9.744036791508651E1  -1.652253193966823E1  -1.200121958118780E2  
 1.472127139364303E11   -3.060229003159357E1  -1.724291768885581E2  -9.645995810791359   8.387845608483507E1  -9.697579621933135   5.214147459133293E1  -1.888632781559021E1  -1.417051666302261E2  
 1.472249388753056E11   -2.674437124539086E1  -1.681291058718149E2  -9.354221057233930   3.607641098228324E1  -9.435980739415141   4.415959165906661  -2.228036703843094E1  -1.296864237656923E2  
 1.472371638141809E11   -2.823426067667448E1   1.698540341990851E2  -9.377353354572525  -1.296070674178574E1  -9.455647658225574  -4.451527356748010E1  -2.052832605911319E1  -1.184427256848662E2  
 1.472493887530562E11   -3.985710554841602E1  -1.227205943972443E2  -9.592663427273308  -6.048194259327948E1  -9.671367455982841  -9.139712349990714E1  -1.978997591572695E1  -1.321922016053978E2  
 1.472616136919316E11   -2.470517006671504E1  -1.138761560935299E2  -9.499255508650153  -1.064437343899919E2  -9.557505125427266  -1.376660187346073E2  -2.370418232129752E1  -1.332239964459288E2  
 1.472738386308069E11   -2.209255893984096E1  -1.420997801696671E2  -9.327857732265935  -1.545882994085550E2  -9.402585883025068   1.737427283549804E2  -2.136590966923551E1  -1.034568149869344E2  
 1.472860635696822E11   -2.330165627959450E1  -1.644628062852462E2  -9.444681615268618   1.569708954694253E2  -9.513732892825559   1.254107632165677E2  -1.803396967706785E1  -1.155853417304601E2  
 1.472982885085575E11   -2.617309238848468E1  -1.450407754359016E2  -9.681334919019617   1.097766719304128E2  -9.745636188248851   7.868030299444230E1  -1.789176358148285E1  -1.392069181548791E2  
 1.473105134474328E11   -2.143374066813584E1  -1.420205357278657E2  -9.529689325053488   6.384566516456331E1  -9.602600397202910   3.276834285787400E1  -2.263468467371944E1  -1.474574713082048E2  
 1.473227383863081E11   -1.992718594051691E1  -1.617418704190376E2  -9.408771626429203   1.527287731046794E1  -9.461557485714517  -1.574515812696238E1  -2.149163913155142E1  -1.107294981338880E2  
 1.473349633251834E11   -2.141874507150013E1   1.794130053037426E2  -9.540380828042247  -3.289498067916058E1  -9.612337468093372  -6.405376773106673E1  -1.761557925601076E1  -1.224056612838439E2  
 1.473471882640587E11   -2.368278381791506E1  -1.654122219077474E2  -9.686972901627883  -7.912700563893503E1  -9.740721086335812  -1.102080810773267E2  -1.784659981429738E1  -1.483629235058163E2  
 1.473594132029340E11   -2.059190071667449E1  -1.630745507648224E2  -9.441328423367713  -1.258601244861315E2  -9.511516961670752  -1.574166483325267E2  -2.320337957848304E1  -1.495912523416586E2  
 1.473716381418093E11   -1.925091425198637E1  -1.789775478833835E2  -9.434665958126354  -1.741617637646561E2  -9.487302835425956   1.541262923650830E2  -2.058243085141045E1  -1.113580607572980E2  
 1.473838630806846E11   -2.066846490810120E1   1.633670239621995E2  -9.652286177998500   1.381161559797997E2  -9.721765703220104   1.060603075251492E2  -1.649769397168586E1  -1.262648625235049E2  
 1.473960880195599E11   -2.235205025084765E1   1.727143295028590E2  -9.628291615406237   9.267648072547999E1  -9.701510695678978   6.096600093834524E1  -1.666706745197540E1  -1.517752944905787E2  
 1.474083129584352E11   -2.126627529090312E1   1.746071555543467E2  -9.362460584478100   4.486601585573526E1  -9.435213491253547   1.310974208644431E1  -2.018294124826927E1  -1.552121332874546E2  
 1.474205378973105E11   -1.997474266276961E1   1.688321220099175E2  -9.388565185727746  -4.118832808546325  -9.456541563714341  -3.563776058636053E1  -1.897864985739968E1  -1.338791525363091E2  
 1.474327628361858E11   -2.008334265240969E1   1.551460714609190E2  -9.662752923324655  -5.134488565221662E1  -9.709516135021485  -8.357253463938262E1  -1.568448018028293E1  -1.460161766292705E2  
 1.474449877750611E11   -2.041397596901162E1   1.510909432882980E2  -9.607375413219341  -9.679855368890620E1  -9.671162929196838  -1.290141387691714E2  -1.569214534592348E1  -1.720000518733354E2  
 1.474572127139364E11   -2.100053981814189E1   1.359469539657410E2  -9.368699834539694  -1.446430620338579E2  -9.414362256180429  -1.768412350059450E2  -1.885470329524992E1   1.723456475151937E2  
 1.474694376528117E11   -2.415293975986351E1   1.250439147120231E2  -9.394140834405546   1.669460804257701E2  -9.440821406996536   1.339779904971442E2  -2.179822277962476E1  -1.738729123766006E2  
 1.474816625916870E11   -3.086034762410709E1   1.580685031423337E2  -9.602481761083432   1.199245031117440E2  -9.651350230746896   8.679895176174236E1  -1.981952761157844E1  -1.708043146918935E2  
 1.474938875305624E11   -2.273079473899908E1  -1.725587819648179E2  -9.442476765904079   7.380840789941715E1  -9.484837572078092   4.012988199166330E1  -2.193859620309531E1   1.701626544380749E2  
 1.475061124694377E11   -1.951743376004207E1   1.691313284115067E2  -9.337386827739326   2.522490639847459E1  -9.379087160683554  -8.522288797758364  -2.717630944470647E1  -1.494957549241500E2  
 1.475183374083130E11   -1.841298553452700E1   1.477937048671184E2  -9.514224617745333  -2.293544752742644E1  -9.575785495863622  -5.708857600366822E1  -1.932053388569205E1  -1.313623160880763E2  
 1.475305623471883E11   -1.956904548874103E1   1.304355871399028E2  -9.688776556931815  -6.902630137682895E1  -9.742325999123368  -1.029757931803642E2  -1.599595923520384E1  -1.578466722890993E2  
 1.475427872860636E11   -2.007853268179452E1   1.200621799786647E2  -9.453556756020621  -1.156839830588503E2  -9.505579674173006  -1.501557243357896E2  -1.664438395555848E1   1.767490607385342E2  
 1.475550122249389E11   -2.176099179599931E1   1.016130795415404E2  -9.380286908254989  -1.647945130938539E2  -9.427223360029300   1.608062462290330E2  -1.923359622358957E1   1.679374108539755E2  
 1.475672371638142E11   -2.636014308504690E1   8.065305841612081E1  -9.680448872455122   1.475123644129482E2  -9.716518771604042   1.125091888292481E2  -1.933474155801725E1   1.767567356872914E2  
 1.475794621026895E11   -3.722648860979334E1  -1.450734431819660E2  -9.800845457360291   1.023741377793198E2  -9.865085760381481   6.729121467004926E1  -1.789092515081308E1   1.587058848693494E2  
 1.475916870415648E11   -2.347632186783718E1   1.789897497062286E2  -9.470745972261813   5.520778092523004E1  -9.526346373000276   1.989433515886035E1  -2.154845869061554E1   1.339709795416308E2  
 1.476039119804401E11   -2.166152942049275E1   1.535805977444395E2  -9.469026096889580   6.125972889300259  -9.519376662336057  -2.937397086332032E1  -2.904364345941424E1   1.706804572107232E2  
 1.476161369193154E11   -2.340277725826375E1   1.389955282234878E2  -9.797326440430178  -4.159457547549566E1  -9.852813371598886  -7.765420998626284E1  -2.075873665863591E1  -1.658055170003939E2  
 1.476283618581907E11   -2.269887516682659E1   1.628491134224076E2  -9.824724465723685  -8.662361375582552E1  -9.883627152304815  -1.224766732373495E2  -1.825293342440854E1   1.587528595417332E2  
 1.476405867970660E11   -1.874210150754029E1   1.485387470860899E2  -9.574168730807305  -1.340807800804745E2  -9.598836498236896  -1.706027607916225E2  -2.170716131397149E1   1.223289460483188E2  
 1.476528117359413E11   -1.800226324559212E1   1.247662484664887E2  -9.650001539851882   1.770334661485928E2  -9.718613023805821   1.407624105315483E2  -3.950790866616428E1   1.512354182643459E2  
 1.476650366748166E11   -2.009034242878502E1   9.973856474606006E1  -9.981363441649794   1.304995888225499E2  -1.004142620804547E1   9.433606925534275E1  -2.238275154975765E1  -1.581597685661855E2  
 1.476772616136919E11   -2.472536816549996E1   1.145369597696671E2  -9.728588009610323   8.578363554972862E1  -9.782359734472616   4.925481936510636E1  -2.102669462655404E1   1.615518677113442E2  
 1.476894865525672E11   -2.149928847783724E1   1.266136462100632E2  -9.453169406939411   3.724111509699040E1  -9.494774175246644   7.733102351451128E-1  -2.676116667800707E1   1.398342421724868E2  
 1.477017114914425E11   -1.972071190662698E1   1.125046157764605E2  -9.574517860460736  -1.176034832908879E1  -9.626003875292014  -4.839017132974208E1  -2.806288049723047E1  -1.348578958016317E2  
 1.477139364303178E11   -2.059645118433358E1   9.415332869915440E1  -9.834172957003917  -5.808595756168978E1  -9.879888548760173  -9.459640700662965E1  -1.931520267530727E1  -1.564599176676830E2  
 1.477261613691932E11   -2.138643463310361E1   9.371478394490350E1  -9.547294001944843  -1.036349536603074E2  -9.605980841198445  -1.405273792941042E2  -1.807481198630739E1   1.721004080449664E2  
 1.477383863080685E11   -2.100993619070655E1   7.767994671392835E1  -9.349599332092049  -1.529462104651026E2  -9.416630168823998   1.710807597860961E2  -1.959954728909236E1   1.502548044535772E2  
 1.477506112469438E11   -2.275479904565358E1   5.514729123621454E1  -9.468201376070057   1.586122724981107E2  -9.538905275943542   1.217237031347820E2  -2.289776445795673E1   1.493434656512484E2  
 1.477628361858191E11   -2.839897446590151E1   1.621298441013251E1  -9.747495870232086   1.119482721739558E2  -9.793136811004475   7.516423430214852E1  -2.123639497220651E1   1.584455148690905E2  
 1.477750611246944E11   -3.492879257843300E1  -1.753686689216225E2  -9.497795615296797   6.597557909049243E1  -9.572999559753773   2.915342323040001E1  -2.184820074529393E1   1.353418200638876E2  
 1.477872860635697E11   -2.662823439581911E1   1.410225403411000E2  -9.387361577626139   1.660073961009512E1  -9.451412732287912  -1.997864239596484E1  -2.846587329839430E1   1.405827981934689E2  
 1.477995110024450E11   -2.540495184937104E1   1.148816482906845E2  -9.640886587785534  -3.185942885439371E1  -9.719282587220848  -6.830952232832594E1  -2.325689381798445E1  -1.654664342755891E2  
 1.478117359413203E11   -2.917425032177925E1   1.198042633957063E2  -9.809936324314394  -7.699554757299592E1  -9.866504362037025  -1.130339123208723E2  -1.823568836103030E1   1.681850437468262E2  
 1.478239608801956E11   -2.490907725179213E1   1.267230957543220E2  -9.461329243981895  -1.241895218831586E2  -9.523820994380909  -1.600495600587063E2  -1.856345600837038E1   1.403826884272367E2  
 1.478361858190709E11   -2.549278457902395E1   1.030940950676675E2  -9.384433042090734  -1.734287973932157E2  -9.444813152779334   1.508197983973422E2  -2.139092771359772E1   1.296384078009655E2  
 1.478484107579462E11   -3.340942540916872E1   1.093935744254974E2  -9.644756203909994   1.378588149006419E2  -9.725841382043850   1.024304119283797E2  -2.172161491489475E1   1.476285960334424E2  
 1.478606356968215E11   -2.374872301100246E1  -1.792059078848197E2  -9.819771134970434   9.199130188682223E1  -9.894924855920054   5.655571793126462E1  -1.793703634663116E1   1.321793579859065E2  
 1.478728606356968E11   -1.786186734578288E1   1.473698792128067E2  -9.641583547035872   4.506843328606166E1  -9.720477025728759   9.817496895687308  -1.841512827522043E1   9.501344872648130E1  
 1.478850855745721E11   -1.639013552516155E1   1.157494302810237E2  -9.725304414375872  -3.318030172570325  -9.794075347827741  -3.826282184648625E1  -2.411878301020479E1   4.926250587568489E1  
 1.478973105134474E11   -1.747835310892275E1   8.611380957081715E1  -9.962449577083307  -4.969316729194105E1  -1.001664746221127E1  -8.394160636531865E1  -3.342157367112080E1  -1.389620728528724E2  
 1.479095354523228E11   -2.097344789631611E1   7.800474103097139E1  -9.617602992472751  -9.520081959432500E1  -9.683983080471450  -1.295912487961244E2  -2.442797748606729E1   1.640556584797693E2  
 1.479217603911981E11   -2.132926293651312E1   8.313519138013434E1  -9.350368459230898  -1.443056363718218E2  -9.416853185842944  -1.786478166762493E2  -2.472617394533907E1   1.416678384248340E2  
 1.479339853300734E11   -2.083336162000506E1   7.781517394684116E1  -9.499475409408511   1.661854148563677E2  -9.550453577154537   1.324371918825140E2  -2.813460120414726E1   1.634244594247625E2  
 1.479462102689487E11   -2.165317195289700E1   6.133929408404267E1  -9.869955174598772   1.194060117910223E2  -9.948005944924747   8.583062086337966E1  -2.077251666270844E1   1.777930712399832E2  
 1.479584352078240E11   -2.433336788518989E1   6.951817570714542E1  -9.629606266248997   7.455063290434266E1  -9.697941963489155   4.059476742050199E1  -1.820367138804196E1   1.512751799980071E2  
 1.479706601466993E11   -2.242685065144089E1   6.163859737207176E1  -9.399124831643201   2.529878661073821E1  -9.463117059387020  -7.845065348006994  -1.836268465593273E1   1.341737116251209E2  
 1.479828850855746E11   -2.427233097646938E1   3.437870053810656E1  -9.546619243273232  -2.363044593703547E1  -9.610531718487890  -5.665722025972346E1  -1.895198785758455E1   1.307136183468492E2  
 1.479951100244499E11   -3.474203973876291E1  -2.606304949184640E1  -9.750810385972896  -6.969984386471428E1  -9.825012180953349  -1.025715450793958E2  -1.671458385428935E1   1.262928793608848E2  
 1.480073349633252E11   -2.540676843298638E1   1.519595339207472E2  -9.530289365139636  -1.165738108436388E2  -9.589497830507685  -1.490420577894284E2  -1.586785880450708E1   1.032926655087363E2  
 1.480195599022005E11   -2.121299956957205E1   1.062347717750343E2  -9.444935931408745  -1.655822304560624E2  -9.511044623470324   1.623675691874882E2  -1.730479381743937E1   8.082689088040308E1  
 1.480317848410758E11   -2.242047960713587E1   6.888138894644800E1  -9.618755190335277   1.460585714160115E2  -9.688658329063543   1.143779856703575E2  -2.130262617511546E1   7.451573844104385E1  
 1.480440097799511E11   -3.577802099149361E1   7.045095707793492E1  -9.712188182587560   9.995845433665082E1  -9.769485717616384   6.846180380901647E1  -2.030663536125955E1   9.353661565525466E1  
 1.480562347188264E11   -2.271264385588266E1   1.390471910653276E2  -9.523602528123092   5.231709074702522E1  -9.585069058068230   2.108001872281602E1  -1.841719457210204E1   7.300141055171856E1  
 1.480684596577017E11   -1.847449329049460E1   1.079806849908553E2  -9.633885034442667   3.728407252963615  -9.698916536402660  -2.743258819647187E1  -2.062029779153947E1   4.232954029941826E1  
 1.480806845965770E11   -1.852133113475607E1   7.602558845077063E1  -9.967677482206529  -4.241861403647663E1  -1.001555440219654E1  -7.373957913138503E1  -3.282253953665560E1   4.449689172306684E1  
 1.480929095354523E11   -2.297729114235012E1   6.990518700600914E1  -9.676871161278266  -8.742889257533892E1  -9.731554326656198  -1.187592968668964E2  -2.419774431243472E1   1.059828866945068E2  
 1.481051344743276E11   -2.127397558464242E1   9.034275033965089E1  -9.366641237275539  -1.362832704627070E2  -9.430238014501084  -1.672683868649855E2  -2.139529813071623E1   8.318934018461775E1  
 1.481173594132029E11   -1.909080870766976E1   7.753703870603489E1  -9.446305159088636   1.745375545335912E2  -9.507803045562486   1.436004751157185E2  -2.321212741204696E1   5.612927380084811E1  
 1.481295843520783E11   -2.004310910371867E1   5.871537535253960E1  -9.705648234012804   1.275975730597936E2  -9.763842856304729   9.676299761493041E1  -3.030780058064919E1   9.300042355703775E1  
 1.481418092909536E11   -2.228666324699778E1   7.525406156142030E1  -9.501040757991547   8.126877510268498E1  -9.553433105008399   5.013296920616163E1  -2.202172184414624E1   1.081141081007021E2  
 1.481540342298289E11   -1.813243453490651E1   7.652791304062690E1  -9.452090170189004   3.208141349571142E1  -9.500877856861660   1.330976211473078  -1.900836715783069E1   8.459661184474420E1  
 1.481662591687042E11   -1.621680131975747E1   5.331202027840891E1  -9.705650854591596  -1.628366110534427E1  -9.766191030283865  -4.744782667780639E1  -1.962539217883639E1   5.772108888894161E1  
 1.481784841075795E11   -1.721091542029314E1   2.205894648039573E1  -1.001679307652032E1  -6.121867197898191E1  -1.006788092362119E1  -9.247946925426034E1  -2.267279341726525E1   6.141071975353474E1  
 1.481907090464548E11   -2.412184057089322E1   5.243805955532451  -9.617553682519814  -1.066548113270516E2  -9.668083135026020  -1.380411108970032E2  -2.035655796590697E1   5.956397761360666E1  
 1.482029339853301E11   -2.455573147467074E1   6.126555513963359E1  -9.426224634257380  -1.557265721478302E2  -9.479798552254076   1.730085159143902E2  -2.001568524964096E1   4.219338444639165E1  
 1.482151589242054E11   -1.956191739097892E1   4.805625916461111E1  -9.703168304109530   1.558590413258614E2  -9.739142434499467   1.246960282763464E2  -2.239763171102988E1   2.373310230027475E1  
 1.482273838630807E11   -2.028064029333676E1   1.453831235364186E1  -9.744781051936240   1.110497161070057E2  -9.800743206857357   7.968215821824325E1  -2.487045181633260E1   4.303311627608105E1  
 1.482396088019560E11   -2.736213537922774E1   8.054499663315644  -9.348497073141385   6.369656014712908E1  -9.400560982730640   3.224796201048572E1  -2.245242685549642E1   3.726814331959966E1  
 1.482518337408313E11   -2.615447820310098E1   6.241124634162121E1  -9.306617224271035   1.446165072103085E1  -9.361177858352262  -1.706637203514064E1  -2.253802152277232E1   2.060646502028942E1  
 1.482640586797066E11   -2.169420986839111E1   4.922479154854224E1  -9.532382390663775  -3.314899737228852E1  -9.595048749811392  -6.478253365666674E1  -2.615116670825340E1   4.482303334687366  
 1.482762836185819E11   -2.353752867356596E1   3.006644311293696E1  -9.399813366021329  -7.910838033164646E1  -9.443945030392577  -1.110780441078669E2  -2.814089611350020E1   3.003724343578328E1  
 1.482885085574572E11   -2.481970011093236E1   4.999514918425987E1  -9.220227422432776  -1.279498878833680E2  -9.266730195683556  -1.600624845358548E2  -2.655642549645694E1   3.219924816629339E1  
 1.483007334963325E11   -2.139852355769079E1   5.430472038607270E1  -9.390019036057369  -1.770460432074909E2  -9.442189712898383   1.508326875569345E2  -2.585800187786185E1   1.691891099598431E1  
 1.483129584352078E11   -1.941983913377405E1   3.319064694075480E1  -9.777307237009941   1.366697933635253E2  -9.832797641088817   1.041871063909023E2  -3.292366789652569E1   2.145644486781540  
 1.483251833740831E11   -2.225235032437562E1   1.327513262539343E1  -9.551144226842554   9.171937674221118E1  -9.610887589571693   5.913805929720847E1  -2.932633658407182E1   5.637969384967170E1  
 1.483374083129584E11   -2.421184447961074E1   3.261055730439919E1  -9.304195683808679   4.294908610448660E1  -9.367575834589317   1.012649989121825E1  -2.710197004377961E1   4.495249487266960E1  
 1.483496332518337E11   -2.144738255951584E1   3.425028971241307E1  -9.474766253402882  -6.136333135020387  -9.521260278749343  -3.866439279719717E1  -2.730605372661590E1   2.596227277128045E1  
 1.483618581907091E11   -2.087566874688170E1   9.376861005660460  -9.789623296333017  -5.212508707401647E1  -9.855137666795937  -8.469235713155393E1  -3.455021452848641E1   5.675530724503405E1  
 1.483740831295844E11   -2.779420836527940E1  -1.862191770720488  -9.511740214144965  -9.773490716802709E1  -9.578038228544770  -1.305202529745529E2  -2.554224595550351E1   7.242127208826065E1  
 1.483863080684597E11   -2.531731129875579E1   5.850691192163972E1  -9.361259757736329  -1.466850788330422E2  -9.409039990831399  -1.797310681291733E2  -2.314960998931761E1   5.177443562865106E1  
 1.483985330073350E11   -2.032102802134818E1   4.201179754196121E1  -9.556183655849750   1.650024616079265E2  -9.621451771010202   1.323680933609531E2  -2.386045262787910E1   3.039360269155275E1  
 1.484107579462103E11   -2.063826831700573E1   1.268577089736752E1  -9.631951329395930   1.195519434382057E2  -9.681569639722079   8.610423957444706E1  -2.570783138481825E1   4.041532237918152E1  
 1.484229828850856E11   -2.571517816924864E1   1.746207196656334E1  -9.354594719127539   7.205056409382168E1  -9.408391500739961   3.885425392770559E1  -2.351108626377375E1   4.065430063037016E1  
 1.484352078239609E11   -2.201736667306251E1   4.721409076495298E1  -9.387793557262704   2.320974128919269E1  -9.435593759841845  -1.032900524813560E1  -2.168421890376935E1   3.026629376431627E1  
 1.484474327628362E11   -1.821404044318708E1   2.758066278168646E1  -9.714342454154791  -2.407915896153516E1  -9.749124499153371  -5.848286055278658E1  -2.166300903252105E1   7.121507597398039  
 1.484596577017115E11   -1.867360226939369E1  -2.230971419445846  -9.651688080701025  -6.860311407955992E1  -9.712094367759304  -1.030035107389790E2  -2.387738311796408E1  -3.002151441201459E-1  
 1.484718826405868E11   -2.248839506546484E1  -1.429065892912658E1  -9.334990331357997  -1.167582909530787E2  -9.374847246831008  -1.508350821924930E2  -2.449061771127701E1  -1.075621674172551E1  
 1.484841075794621E11   -2.480973681355554E1   8.500557067496896E-1  -9.342793075122099  -1.657095072036215E2  -9.392740392230991   1.601979847331401E2  -2.714878116505690E1  -2.395721780244915E1  
 1.484963325183374E11   -2.318251421301731E1   3.399981814809117  -9.548844516516718   1.469344581707906E2  -9.603019791799847   1.128150940496648E2  -3.432851755519966E1  -3.141816189065081E1  
 1.485085574572127E11   -2.627444667996487E1  -1.012063949131068E1  -9.417681343179643   1.008048915619038E2  -9.461024851933706   6.588310850928832E1  -3.313701435113602E1   4.801326878172424E1  
 1.485207823960880E11   -2.715389956246119E1   3.901160090096017E1  -9.321667449137374   5.209889953900201E1  -9.369021016073393   1.739289556248989E1  -2.907477917005656E1   4.520113635589769E1  
 1.485330073349633E11   -2.118134321002593E1   3.767152593055496E1  -9.561873299447742   3.650500039177635  -9.628835709079720  -3.097160034692960E1  -2.801919910666732E1   3.724949754315728E1  
 1.485452322738386E11   -1.919770358069495E1   1.065521361596923E1  -9.768290399730967  -4.170098180366546E1  -9.819451630535497  -7.629997907396820E1  -2.707139615350598E1   5.528677901402072E1  
 1.485574572127139E11   -2.263179126583693E1  -7.930649593869709  -9.437290774210878  -8.830293121740628E1  -9.494140966794653  -1.231073480547200E2  -2.354713907644941E1   4.238409855827224E1  
 1.485696821515892E11   -2.416815139926989E1   2.401828467304148E1  -9.343900239597488  -1.377327546445927E2  -9.387592897138172  -1.717028785788817E2  -2.331388081319942E1   3.269908635525381E1  
 1.485819070904645E11   -1.918431863003372E1   2.421274081508624E1  -9.586733611821526   1.744546706442577E2  -9.627843380129709   1.397073526533498E2  -2.260615848677355E1   2.635571333422672E1  
 1.485941320293398E11   -1.753879272149935E1  -2.682370510935471  -9.668036030113068   1.288756362086565E2  -9.717791328255510   9.469078219103950E1  -2.156857996737484E1   2.431837687937582E1  
 1.486063569682152E11   -1.997316077989831E1  -2.421406159100379E1  -9.385293226732445   8.173625984724417E1  -9.432450307210043   4.720917315614185E1  -2.018743970988444E1   5.603275273677503  
 1.486185819070905E11   -2.372065288622568E1  -1.428188764290738E1  -9.358497477406889   3.252032678842048E1  -9.408224534685278  -1.900228107802581  -2.183583549250758E1  -1.365025035210155E1  
 1.486308068459658E11   -2.123757595843998E1   3.120131141226894  -9.631458184674909  -1.502325472928394E1  -9.681985529483528  -4.986647987795121E1  -2.559665002679439E1  -1.751761419653611E1  
 1.486430317848411E11   -1.996899297836259E1  -1.723540012336715E1  -9.570211644902052  -6.080523266560729E1  -9.618932660049987  -9.544709355381683E1  -2.491827599035142E1   1.277647602368026E1  
 1.486552567237164E11   -2.353396250760354E1  -2.342596271941886E1  -9.380798921420730  -1.091802072819432E2  -9.425286874670885  -1.436010878781861E2  -2.241109576540375E1   8.346482233849231E-1  
 1.486674816625917E11   -2.283023672293226E1   9.879268202241720  -9.552645220665104  -1.582661209892361E2  -9.611089248995688   1.668302784975212E2  -2.251022338465575E1  -1.098616044477245E1  
 1.486797066014670E11   -1.782611933878443E1   1.092611893385460  -9.959823491492985   1.556461039512424E2  -1.002728139752139E1   1.208885938339361E2  -2.444312669238272E1  -1.911551110631016E1  
 1.486919315403423E11   -1.715945269343010E1  -2.816744929963868E1  -9.745631647606608   1.109836170371102E2  -9.791778218053624   7.616306880241775E1  -2.304274200261110E1  -8.731530506409122E-1  
 1.487041564792176E11   -1.963281150279580E1  -4.611919368569282E1  -9.443712102066087   6.247393217048725E1  -9.486362888348619   2.834297549534361E1  -2.052706458481580E1  -2.252006719418924E1  
 1.487163814180929E11   -2.295426029908721E1  -4.020475849080957E1  -9.530302679289580   1.320465643453339E1  -9.577617953480807  -2.064504164971980E1  -2.152510228916571E1  -4.906749493896587E1  
 1.487286063569682E11   -2.120800719917639E1  -2.891393632341612E1  -9.749322756962975  -3.279238822357063E1  -9.808602210993314  -6.677074963148982E1  -2.612428181370621E1  -7.410076322797634E1  
 1.487408312958435E11   -2.163883075782969E1  -4.649601767742983E1  -9.499716913535627  -7.892040595233043E1  -9.559243421596323  -1.128960768712540E2  -3.147948839350152E1  -3.492987161580893E1  
 1.487530562347188E11   -2.493942634242331E1  -3.867214826604020E1  -9.330212923842897  -1.278319569656872E2  -9.373274453172707  -1.615904744288460E2  -2.839410318492515E1  -4.141131621909194E1  
 1.487652811735941E11   -2.265572091206953E1  -1.596149438461745E1  -9.463750275129746  -1.760262986610353E2  -9.515739121673795   1.503102457316023E2  -3.319600319740205E1  -6.824275639026357E1  
 1.487775061124694E11   -1.954916317539811E1  -2.984797407513587E1  -9.501026071308722   1.373442795036724E2  -9.556779969041577   1.041896952750995E2  -3.550948734704068E1   5.717808476036763E1  
 1.487897310513447E11   -2.075857455747466E1  -4.765404813876408E1  -9.310343383747789   8.948759152494061E1  -9.356657772357718   5.614430315992610E1  -2.729362394022857E1   1.785714484617159E1  
 1.488019559902200E11   -2.227171595564971E1  -3.773779163675130E1  -9.299228202176490   4.029696941841846E1  -9.350559324288859   7.151242581684456  -2.890414315223860E1  -9.908071890606482  
 1.488141809290953E11   -1.889308946855441E1  -3.451877405596891E1  -9.614447590335022  -7.865331636428633  -9.642925043777298  -4.052020739117801E1  -3.519854828735962E1   1.156201272410418E1  
 1.488264058679706E11   -1.663103046884148E1  -6.114828735314845E1  -9.727023663236231  -5.347601475180755E1  -9.792461243495104  -8.599985363903964E1  -2.644232206289235E1   6.215679442485805E1  
 1.488386308068460E11   -1.774584349926809E1  -9.555531627983631E1  -9.530764378444939  -1.007720171229173E2  -9.581641418388125  -1.325747185837814E2  -2.074013658379525E1   3.007927880520853E1  
 1.488508557457213E11   -2.241335319330164E1  -1.294390887498275E2  -9.493868543988938  -1.493192054088045E2  -9.541512048583252   1.790643560449613E2  -1.994185758668379E1  -4.448871792241830  
 1.488630806845966E11   -3.652436269667901E1  -1.250119362563175E2  -9.618615039202304   1.635887702359223E2  -9.664891125865642   1.317559156243618E2  -2.290099903403684E1  -3.467269562461738E1  
 1.488753056234719E11   -3.025667200768998E1  -7.644469037988142E1  -9.477736648841148   1.167740018553675E2  -9.526261407807104   8.477046289400606E1  -2.875826079368006E1  -2.422131796481279E1  
 1.488875305623472E11   -3.779508313091646E1  -1.408612537453386E2  -9.408985461034691   6.824306312240357E1  -9.476168151243728   3.576817968386283E1  -2.799008430688912E1  -3.520309688415798  
 1.488997555012225E11   -2.712377864326641E1   5.565005571908253E1  -9.678186156468057   1.911402999080671E1  -9.736221200497880  -1.215387164922840E1  -2.810416327333941E1  -2.029572345386581  
 1.489119804400978E11   -1.990576938585375E1   5.230294642023345  -9.954124009053466  -2.621573573615022E1  -9.999200471519133  -5.764718015124415E1  -2.826653809246941E1   3.572188905932518E1  
 1.489242053789731E11   -1.875017605649443E1  -3.819647962144747E1  -9.681978988644877  -7.201982744674631E1  -9.732808051470615  -1.036093984100309E2  -2.109606895949310E1   2.542187559588624E1  
 1.489364303178484E11   -2.147670907921342E1  -7.045803677526916E1  -9.502966543304268  -1.207468721905472E2  -9.565693162345161  -1.520067736728112E2  -1.984283453119991E1  -5.372154191904816  
 1.489486552567237E11   -2.835375191443430E1  -6.465550277043322E1  -9.664799101440440  -1.693173414097397E2  -9.720629670195843   1.596142816514713E2  -2.254236800295939E1  -3.232100107451375E1  
 1.489608801955990E11   -2.308535314265359E1  -3.695291315781994E1  -9.797744675181058   1.445914575462762E2  -9.853009328361042   1.136094453758425E2  -3.051618198586591E1  -3.901704075443065  
 1.489731051344743E11   -2.142164820012690E1  -7.070722238245908E1  -9.620511491414623   9.750745315126623E1  -9.686005702427558   6.681314498704678E1  -2.263378639793172E1   1.941068696948285E1  
 1.489853300733496E11   -2.572496285127462E1  -1.111645766124943E2  -9.638316702622262   4.880924475276762E1  -9.697655677629196   1.815044757751722E1  -2.072987799616839E1  -5.724537927150513  
 1.489975550122250E11   -3.722636284316870E1   4.691908169633607E1  -9.904448492286724   2.214334898380341  -9.956045729752946  -2.877921166230367E1  -2.419844944049380E1  -2.526901047379484E1  
 1.490097799511003E11   -2.320283279769437E1  -1.754644410572208E1  -9.770281238686074  -4.326164384830829E1  -9.839109656207610  -7.416071836453540E1  -2.490619708133576E1   2.103734563654038E1  
 1.490220048899756E11   -2.277244369826608E1  -5.961220035168864E1  -9.532405574441917  -9.140764457753204E1  -9.592239473004458  -1.221958796677572E2  -1.977319894819205E1   1.192366853582960E1  
 1.490342298288509E11   -3.020340993261682E1  -8.909818248943061E1  -9.540664733617609  -1.402489561865835E2  -9.609286774377127  -1.708061583568618E2  -1.893355425661655E1  -7.284605025019819  
 1.490464547677262E11   -2.700422262295058E1   1.515140856985815E1  -9.767285485512765   1.727646288276455E2  -9.822705982251351   1.422776560223824E2  -2.095955632379872E1  -1.606301962733464E1  
 1.490586797066015E11   -2.038498202434850E1  -2.257373610388719E1  -9.640637952742456   1.264509845056992E2  -9.695798774776479   9.620736785312795E1  -1.981166120732604E1   2.288802799901453  
 1.490709046454768E11   -2.001770333933911E1  -5.728786624593103E1  -9.482048330920440   7.865786785803270E1  -9.545327721353255   4.821848543249159E1  -1.671269497286256E1  -1.124965937344414E1  
 1.490831295843521E11   -2.368903371506614E1  -8.613568651118071E1  -9.533560099284051   3.037695606860501E1  -9.606422156223857  -2.209668714512788E-1  -1.647323533075792E1  -3.306711674333629E1  
 1.490953545232274E11   -2.893965100913597E1  -4.878706996459852E1  -9.672453294913682  -1.618041318097128E1  -9.729456595937077  -4.703654710097561E1  -1.926291165553227E1  -4.981933117157159E1  
 1.491075794621027E11   -2.416330807290461E1  -4.858129873291434E1  -9.478026393918848  -6.257550654818149E1  -9.525453968241394  -9.397048682428334E1  -2.133854892700505E1  -2.942558801790772E1  
 1.491198044009780E11   -2.472737151100858E1  -6.784841981073785E1  -9.379754170185427  -1.111951249529456E2  -9.433822506509939  -1.424634843690201E2  -1.865798898942326E1  -2.816451224475389E1  
 1.491320293398533E11   -2.945627021833898E1  -5.264553143568330E1  -9.548945563713303  -1.595781747711557E2  -9.619227743538096   1.690430814457490E2  -1.802341151034931E1  -4.330419200351158E1  
 1.491442542787286E11   -2.341089914698506E1  -3.310186270987563E1  -9.677481782425202   1.546100680544890E2  -9.741677353007866   1.232366235488084E2  -2.067329650016652E1  -5.502226731521505E1  
 1.491564792176039E11   -2.148604580608994E1  -5.989480668901390E1  -9.440008712456876   1.075195451770559E2  -9.498673747101062   7.612969671980196E1  -2.133236949987747E1  -2.804216666529912E1  
 1.491687041564792E11   -2.333860897099846E1  -8.623682872717743E1  -9.366331649820044   5.912550232306037E1  -9.430303449644445   2.747010905319656E1  -1.790546973308086E1  -3.149849421275044E1  
 1.491809290953545E11   -3.144326886421383E1  -9.153880171228123E1  -9.539544482479274   1.089226090707084E1  -9.575815634595291  -2.033964505509906E1  -1.701196050682099E1  -4.795165892257335E1  
 1.491931540342298E11   -2.806592580753146E1  -3.255448706778293E1  -9.550485479181916  -3.534691499456351E1  -9.609895702323263  -6.723914699519153E1  -1.839402060115249E1  -5.904190939066843E1  
 1.492053789731051E11   -2.556856072211500E1  -4.145189469907312E1  -9.423365436094155  -8.363729958559257E1  -9.474515682612649  -1.149967936372428E2  -1.850467060803673E1  -5.502349817375642E1  
 1.492176039119804E11   -2.626498824251650E1  -4.113040999640938E1  -9.569925768255875  -1.322774121408694E2  -9.620492545301032  -1.639212794908099E2  -1.750283618282806E1  -6.569420117446859E1  
 1.492298288508557E11   -2.344467462831119E1  -2.258445121354635E1  -9.841766595905190  -1.781193778232843E2  -9.891848562873824   1.495267651934764E2  -1.882778141915563E1  -8.697381532850511E1  
 1.492420537897311E11   -2.020850610519916E1  -4.482073851269824E1  -9.635581842075601   1.360335293234810E2  -9.689724883663486   1.035311571490835E2  -2.576502722635873E1  -8.157028029660636E1  
 1.492542787286064E11   -2.123219121346280E1  -6.629863536659502E1  -9.476847474427489   8.754726297281536E1  -9.530423807833662   5.475725713289373E1  -2.180792143591005E1  -3.975659799882703E1  
 1.492665036674817E11   -2.543153822173706E1  -6.519387119310230E1  -9.649062667350240   3.902807042974439E1  -9.691458262279571   6.173277824962350  -1.861249171434513E1  -5.546195796193792E1  
 1.492787286063570E11   -2.194654397040984E1  -3.198153170246244E1  -9.917987756143848  -7.099469115769931  -9.954500126711512  -3.992387372468633E1  -1.959184794537670E1  -7.946338040484903E1  
 1.492909535452323E11   -1.862514956197651E1  -5.251484983165533E1  -9.673110270158901  -5.314454670279813E1  -9.730461931571186  -8.614421648833465E1  -2.488066197616344E1  -6.239180310098001E1  
 1.493031784841076E11   -1.881876480440897E1  -7.266998146302430E1  -9.573200989970918  -1.014735010826167E2  -9.627363422137107  -1.346800791025664E2  -1.943956091126252E1  -4.180423160422129E1  
 1.493154034229829E11   -2.135475178125936E1  -8.216822929181620E1  -9.751139712123884  -1.495511081608187E2  -9.805247383442982   1.773348298279500E2  -1.667416564477792E1  -6.441940235186304E1  
 1.493276283618582E11   -2.080940436292762E1  -6.671975975355016E1  -9.818127540861672   1.650986469124337E2  -9.868041237859963   1.315827909515431E2  -1.798960736135513E1  -9.091647986638721E1  
 1.493398533007335E11   -1.934208258899797E1  -7.807348402395188E1  -9.548633290854834   1.174756961921077E2  -9.593178547138274   8.414805245017647E1  -2.261720870665274E1  -8.265327093998809E1  
 1.493520782396088E11   -1.978061956396035E1  -9.069690478592666E1  -9.552352008916495   6.872556754854929E1  -9.612988831315612   3.528244909011890E1  -1.910405057789017E1  -6.502562144367845E1  
 1.493643031784841E11   -2.229936438170349E1  -9.237708782140470E1  -9.825954359043710   2.196100227031017E1  -9.866070271608175  -1.133227126903183E1  -1.671666402819124E1  -8.982343586046724E1  
 1.493765281173594E11   -2.049020462917946E1  -8.195314380384552E1  -9.691153174188157  -2.379452464313273E1  -9.734482591345378  -5.742654357079982E1  -1.913491251429995E1  -1.222275308472286E2  
 1.493887530562347E11   -1.974280054586217E1  -9.936339602118578E1  -9.445974791318221  -7.199413932341469E1  -9.510129909316804  -1.055693405174652E2  -2.751293451057860E1  -1.214208233470018E2  
 1.494009779951100E11   -2.220153069977029E1  -1.141884637372625E2  -9.527844336450160  -1.208044029374565E2  -9.567375025720212  -1.546341019954814E2  -2.410194889662909E1  -6.660753485002739E1  
 1.494132029339853E11   -2.661633564192727E1  -8.679650114433476E1  -9.805624574670940  -1.677396800159016E2  -9.855342993633560   1.583759317642603E2  -2.030598943331746E1  -9.053958966155167E1  
 1.494254278728606E11   -2.067078152169456E1  -7.684512942144684E1  -9.661332020896547   1.462170630657942E2  -9.704414063249315   1.127723154801146E2  -2.417779251377277E1  -1.253748073064793E2  
 1.494376528117359E11   -1.943279495322717E1  -9.749871409518191E1  -9.491806997071981   9.823095610057294E1  -9.550143828072478   6.429393909802953E1  -3.208645023498895E1  -5.279042714745919E1  
 1.494498777506112E11   -2.106801878976535E1  -1.178694064071576E2  -9.636208334519882   4.996570474185478E1  -9.662487882128486   1.578860914412099E1  -2.150379130434856E1  -5.459330769494797E1  
 1.494621026894865E11   -2.512014790199421E1  -1.026482317186285E2  -9.786602603180929   4.151127811031259  -9.833281729109054  -3.018212439373047E1  -1.975088798254141E1  -9.167409736797724E1  
 1.494743276283619E11   -2.155682080621218E1  -9.361507378288576E1  -9.554930496582987  -4.300503597655537E1  -9.566043548913431  -7.717811971656913E1  -2.475796787705973E1  -1.206755647781604E2  
 1.494865525672372E11   -2.099705707169838E1  -1.110039405861793E2  -9.464244413387707  -9.155856543135255E1  -9.500558001758423  -1.256905846220530E2  -2.955032885127279E1  -5.675298903739439E1  
 1.494987775061125E11   -2.451013550594219E1  -1.249144287937804E2  -9.674749093267749  -1.402407561143877E2  -9.701576774331793  -1.735545586556701E2  -2.168635385681119E1  -6.195686055646373E1  
 1.495110024449878E11   -2.600204956233792E1  -7.428925699315684E1  -9.769031090049264   1.746622893487801E2  -9.807936295837157   1.405033919363148E2  -2.141535660748624E1  -9.693535971704827E1  
 1.495232273838631E11   -2.033162156975586E1  -8.198009455738695E1  -9.518905686374065   1.271238053247144E2  -9.557583631646569   9.320768605159378E1  -2.936531696910461E1  -9.295598986348655E1  
 1.495354523227384E11   -1.905805322603353E1  -1.005041389678422E2  -9.530300215493776   7.825253880019339E1  -9.559205571115683   4.427243368393104E1  -2.258512296292878E1  -4.713653047041566E1  
 1.495476772616137E11   -2.055793862279319E1  -1.143055513608022E2  -9.798960687356169   3.068765150661622E1  -9.843874230360225  -3.363132941254714  -1.815036819849371E1  -7.729873063728999E1  
 1.495599022004890E11   -2.056781932389382E1  -9.954066455880330E1  -9.762325353492599  -1.438627863565290E1  -9.815558264617987  -4.832436957194854E1  -1.913934421094967E1  -1.185327631552822E2  
 1.495721271393643E11   -1.793055742565332E1  -1.110077420628234E2  -9.496623979581973  -6.212610686927543E1  -9.531484755944751  -9.618475543253479E1  -2.749709109847242E1  -1.512574649327472E2  
 1.495843520782396E11   -1.772852377509577E1  -1.318843269846899E2  -9.534310340400360  -1.108858151133577E2  -9.564963711715610  -1.444589692187381E2  -2.779087929208242E1  -4.186892743691062E1  
 1.495965770171149E11   -2.047990179485996E1  -1.505581258340098E2  -9.734213792835137  -1.578925136493905E2  -9.773262096189923   1.687712811490500E2  -2.102562714885229E1  -7.780811665569397E1  
 1.496088019559902E11   -2.315149885453175E1  -1.310166676838134E2  -9.504406031395002   1.558586383327343E2  -9.549438968309445   1.224980573110835E2  -2.326828272234633E1  -1.172364144857898E2  
 1.496210268948655E11   -2.067191723887219E1  -1.309319931686351E2  -9.336180203594713   1.069155756501757E2  -9.384754942346486   7.370514847818107E1  -3.600272743586565E1  -1.081721469968060E2  
 1.496332518337408E11   -2.034564953694177E1  -1.501071756275152E2  -9.480779062098161   5.821720851944733E1  -9.526205090407055   2.548354523010555E1  -2.462825360189649E1  -3.930551901071276E1  
 1.496454767726162E11   -2.459090509564810E1  -1.704499921292406E2  -9.698830818569238   1.188760893150711E1  -9.747063256284715  -2.053566283987489E1  -2.120137364077293E1  -7.536387593919037E1  
 1.496577017114915E11   -2.842006556216997E1  -1.269141723783620E2  -9.441940901687341  -3.477129277541944E1  -9.493202946080132  -6.724449023441056E1  -2.549638934718042E1  -9.845225606676213E1  
 1.496699266503668E11   -2.412376086081151E1  -1.188258997212241E2  -9.362911867198095  -8.383819659924934E1  -9.367461472108731  -1.159274937709496E2  -2.639840653297562E1  -5.045165236350448E1  
 1.496821515892421E11   -2.337611123826008E1  -1.329874152009653E2  -9.581200441335188  -1.323683453422677E2  -9.618498162073694  -1.645154413641843E2  -2.004655072431210E1  -5.978365375541920E1  
 1.496943765281174E11   -2.646232219826652E1  -1.203361019397057E2  -9.763043567412032  -1.779942216026760E2  -9.798791642844947   1.496170666707236E2  -1.885280335609913E1  -9.542483622551529E1  
 1.497066014669927E11   -2.204914959876822E1  -1.092879475627792E2  -9.494741755536110   1.351292388728292E2  -9.532248625923550   1.031687771616176E2  -2.422298360674834E1  -1.273889580531376E2  
 1.497188264058680E11   -2.033554789845287E1  -1.249206797960343E2  -9.443263213742345   8.607020357149193E1  -9.480979313146676   5.410730389510177E1  -2.975503728770488E1  -4.630018649471748E1  
 1.497310513447433E11   -2.102593981766459E1  -1.420015243954697E2  -9.699704135812359   3.851282983181991E1  -9.747761020976489   6.282538138388519  -2.022532126116683E1  -6.031288599749723E1  
 1.497432762836186E11   -2.286065823314563E1  -1.301729588311981E2  -9.736157004486127  -7.144898324677175  -9.764489394389530  -3.895392027842380E1  -1.925719034475627E1  -1.010042369313058E2  
 1.497555012224939E11   -1.981350094073932E1  -1.301170643761552E2  -9.475177959913287  -5.512912131620957E1  -9.511478037410296  -8.608241193467491E1  -2.575868334706369E1  -1.358608133259472E2  
 1.497677261613692E11   -1.849225748822061E1  -1.484010554134837E2  -9.558631092824035  -1.040970716001838E2  -9.590002269933383  -1.351413811314408E2  -2.905623714608721E1  -2.184955603338164E1  
 1.497799511002445E11   -1.970323882718366E1  -1.741760759339977E2  -9.845648761390727  -1.507352274261796E2  -9.889730920487315   1.778082785061587E2  -1.968200782539246E1  -5.144007805868934E1  
 1.497921760391198E11   -2.564550751333784E1   1.776472916567013E2  -9.692692951618803   1.645041826106310E2  -9.717868556062070   1.329962247599364E2  -1.959206378802757E1  -8.347544193362808E1  
 1.498044009779951E11   -2.819368071739788E1  -1.422905073593095E2  -9.378972547537684   1.157341093376008E2  -9.390853410026159   8.444090465560917E1  -2.246327905213211E1  -8.184505411668627E1  
 1.498166259168704E11   -2.392304423980393E1  -1.214758846451138E2  -9.442724381960609   6.658865365658130E1  -9.486407131514579   3.547937433880912E1  -1.955796769982930E1  -6.798916792262708E1  
 1.498288508557457E11   -2.153656720982391E1  -1.244134857293015E2  -9.704152407589493   1.951686415842134E1  -9.746585064020719  -1.119941007555015E1  -1.638137410102758E1  -9.032446537017651E1  
 1.498410757946210E11   -1.851887658335864E1  -1.307904494958736E2  -9.559761542678551  -2.652067242251145E1  -9.603335676709472  -5.758957278583588E1  -1.717149599121671E1  -1.245370369175021E2  
 1.498533007334963E11   -1.713626057418052E1  -1.508077952461771E2  -9.438625492833621  -7.480553740146560E1  -9.478050104540055  -1.056678785805979E2  -2.327027074310952E1  -1.548333936606536E2  
 1.498655256723716E11   -1.725634832923192E1  -1.701123165666846E2  -9.553246771297362  -1.229794162426435E2  -9.611364878963675  -1.541723034500765E2  -3.010576403721117E1  -5.545245247755575E1  
 1.498777506112470E11   -1.970909615298924E1   1.728232708680948E2  -9.723464228980536  -1.689015365512305E2  -9.767835678250004   1.599206847926028E2  -2.068693314227451E1  -7.722449225538955E1  
 1.498899755501223E11   -2.182983586937123E1  -1.763351523555913E2  -9.387685003728192   1.441586687041838E2  -9.431707439879610   1.133172027592714E2  -2.154568359391825E1  -1.039691741220080E2  
 1.499022004889976E11   -2.078471564453290E1  -1.697067807024982E2  -9.296070467486457   9.503642151397673E1  -9.350147805371435   6.408390888192474E1  -2.613231690609238E1  -8.908385959512215E1  
 1.499144254278729E11   -1.905110072497929E1  -1.778693684455275E2  -9.566807047563826   4.681714609714014E1  -9.611189253506668   1.509065914036370E1  -2.051441353220238E1  -6.176720088173896E1  
 1.499266503667482E11   -1.970339624682408E1   1.640013982469733E2  -9.713129308925545   1.327827365618424  -9.753792430657356  -2.996108762339388E1  -1.722637212014225E1  -8.570689621970644E1  
 1.499388753056235E11   -2.105419511685494E1   1.576376213454237E2  -9.394129783984829  -4.555754285017051E1  -9.429020829620521  -7.697728617114457E1  -1.797829510237645E1  -1.037640692234068E2  
 1.499511002444988E11   -2.297361600740405E1   1.513128479181656E2  -9.353263303884674  -9.505349684362631E1  -9.377278517099351  -1.259176721471297E2  -1.925860985608220E1  -1.047579520456485E2  
 1.499633251833741E11   -2.477087116163812E1   1.555087573387129E2  -9.617462374462940  -1.428480929190685E2  -9.651692104884983  -1.740066855118870E2  -1.757553297543080E1  -1.020152098876681E2  
 1.499755501222494E11   -2.620922668333720E1   1.783707400582253E2  -9.575596277512943   1.715058665881600E2  -9.610452059701517   1.404985965532008E2  -1.662148565138702E1  -1.223881864531412E2  
 1.499877750611247E11   -2.177769606158092E1  -1.799031033465650E2  -9.355917611879375   1.229575767009977E2  -9.391794366386094   9.219040349928241E1  -1.877776759241933E1  -1.405385995205353E2  
 1.500000000000000E11   -2.073396983148723E1   1.603597857852933E2  -9.476808229717394   7.431414713431784E1  -9.509474983641010   4.308586573768766E1  -2.341114564351246E1  -1.331674934287179E2  
 1.500122249388753E11   -2.180579764409096E1   1.347148140015175E2  -9.835783886720444   2.740124525527142E1  -9.875181235124858  -3.729302829795495  -2.029217628220962E1  -1.074200805366163E2  
 1.500244498777506E11   -2.831787049504652E1   1.328152619172843E2  -9.609926022551919  -1.766789676573148E1  -9.636848749627506  -4.868652035299631E1  -1.887270363376912E1  -1.283185422578962E2  
 1.500366748166259E11   -2.719958734270377E1   1.582669457327596E2  -9.356970265202520  -6.693760907274513E1  -9.394760781237585  -9.764836819180667E1  -2.125484168460331E1  -1.364168591911659E2  
 1.500488997555012E11   -2.761556573717563E1   1.478644452786488E2  -9.572220024328743  -1.164081564667926E2  -9.586265672429109  -1.472154860567540E2  -2.203077336415699E1  -1.141895146801960E2  
 1.500611246943765E11   -3.994343992348712E1   1.411146433451262E2  -1.002142179499652E1  -1.624121590393054E2  -1.002077502159188E1   1.665408867219052E2  -1.738737683560665E1  -1.165005834376691E2  
 1.500733496332518E11   -2.393610930492362E1  -1.224252507988612E2  -9.818000863701219   1.524385266223781E2  -9.847372965446864   1.213853764406779E2  -1.638220856562185E1  -1.479179905656629E2  
 1.500855745721271E11   -1.921670444976425E1  -1.598390404860979E2  -9.660531631356617   1.042697479189827E2  -9.665402401656419   7.292986776087479E1  -1.963687010324098E1  -1.792846529984137E2  
 1.500977995110024E11   -1.881458956753927E1   1.697133089238159E2  -9.871371567429801   5.623254000411205E1  -9.886070000190136   2.494985944613836E1  -3.154553542734713E1  -1.584067677788554E2  
 1.501100244498778E11   -2.245925058084832E1   1.533088210809135E2  -9.917072943893979   1.139585268992093E1  -9.931325600903666  -1.999088028863906E1  -2.166462601139440E1  -1.146832339984652E2  
 1.501222493887531E11   -2.164105852778574E1   1.763141964221733E2  -9.554877685821770  -3.613226250242536E1  -9.562464062728507  -6.781491975365746E1  -1.976700210027227E1  -1.411449298724257E2  
 1.501344743276284E11   -1.902720980505925E1   1.643151814482704E2  -9.538931751378350  -8.548189045488337E1  -9.555721251966208  -1.173889156846518E2  -2.284327021458214E1  -1.647740991540851E2  
 1.501466992665037E11   -1.829188141511484E1   1.443871236054859E2  -9.898322948400509  -1.339176127817959E2  -9.903392966335066  -1.653965961104200E2  -2.803256164715223E1  -1.132806940761887E2  
 1.501589242053790E11   -2.105102634976016E1   1.231188845518159E2  -1.008514838239777E1  -1.780672793338936E2  -1.008923092421930E1   1.504689912411681E2  -1.958927735990530E1  -1.157366534229127E2  
 1.501711491442543E11   -2.245978307613740E1   1.451982719454017E2  -9.638769295393962   1.355272267198220E2  -9.633781847791289   1.038420732975804E2  -1.858985923109568E1  -1.413657296768225E2  
 1.501833740831296E11   -1.969372128097472E1   1.374917912637075E2  -9.510283707619299   8.631927455575948E1  -9.538205177770028   5.477551479939518E1  -2.037107755811529E1  -1.596606604514806E2  
 1.501955990220049E11   -1.941092305468546E1   1.178798879629924E2  -9.758551239145962   3.873300879399724E1  -9.764607236359154   6.587590321598133  -2.282269305984883E1  -1.471669740974115E2  
 1.502078239608802E11   -2.289528972393183E1   1.000094382319823E2  -9.692524789355023  -7.126284058841954  -9.696808614540688  -3.871723430941056E1  -2.033182738729783E1  -1.487255803195100E2  
 1.502200488997555E11   -2.418353291968592E1   1.289342929051398E2  -9.416965852432877  -5.504010927374284E1  -9.419045622316817  -8.728280923781418E1  -2.030268985276074E1  -1.629601243244744E2  
 1.502322738386308E11   -2.041399789247084E1   1.214089298992524E2  -9.527444186292406  -1.044305297912081E2  -9.531110984525611  -1.365560787825478E2  -2.212795746015360E1  -1.743404078402211E2  
 1.502444987775061E11   -1.915652382605654E1   9.407932078414108E1  -9.863808311798184  -1.506764210888414E2  -9.877525965738945   1.768926486091515E2  -2.310933641820444E1  -1.630893602796983E2  
 1.502567237163814E11   -2.231589593478545E1   5.883902760345791E1  -9.609913751696052   1.642156978516474E2  -9.624819270877637   1.315151758110781E2  -2.254411352211299E1  -1.783454423843708E2  
 1.502689486552567E11   -3.062940609156424E1   6.146507434707049E1  -9.352120378702914   1.148894668880789E2  -9.376641082462125   8.250094773291639E1  -2.705782301810251E1   1.716784572102760E2  
 1.502811735941320E11   -2.922034999743355E1   1.005169701845804E2  -9.557383440727366   6.624994676237321E1  -9.566118515076369   3.293104588847253E1  -3.048075149591134E1  -1.311065811009920E2  
 1.502933985330073E11   -2.658808753606033E1   7.033338973882543E1  -9.887514660265726   2.014435593128058E1  -9.885367240338294  -1.252987745201541E1  -2.172463187370151E1  -1.305039489104024E2  
 1.503056234718826E11   -3.473293521676094E1  -6.297569821199529  -9.568692034307841  -2.564436275552345E1  -9.576383475348989  -5.833989025424532E1  -2.058743803442143E1  -1.638024283009893E2  
 1.503178484107579E11   -3.115567317359800E1  -1.642474041560477E2  -9.381379860085714  -7.443851709962746E1  -9.399000895572014  -1.070273137800888E2  -2.374893288931485E1   1.731043301600299E2  
 1.503300733496332E11   -2.678047360189076E1   1.511648482996941E2  -9.603244062738801  -1.231452503569370E2  -9.623167438577095  -1.555360009551534E2  -3.002259130899994E1  -1.526114760148902E2  
 1.503422982885085E11   -3.062535165835752E1   1.195636390245909E2  -9.673665436701359  -1.684087247251741E2  -9.677516745203427   1.590411180064166E2  -2.269921859901616E1  -1.396385499930420E2  
 1.503545232273839E11   -2.858216935592237E1   1.785241133206633E2  -9.391346875972046   1.437070361471493E2  -9.400789964998234   1.110304074675887E2  -2.137964618445675E1  -1.618832630506173E2  
 1.503667481662592E11   -2.276061540644971E1   1.556362144434938E2  -9.429444709374282   9.451892301094399E1  -9.424925504755013   6.204074080560632E1  -2.321359790457136E1   1.791398441241471E2  
 1.503789731051345E11   -2.139426153951128E1   1.233468197438038E2  -9.782966597048054   4.693278254124820E1  -9.776259149354861   1.445432526329728E1  -2.719455344440970E1  -1.568518080075986E2  
 1.503911980440098E11   -2.606905982026410E1   8.624213109423468E1  -9.741895938374803   2.640430616455475  -9.746520717948975  -3.034215259291065E1  -2.178634694705261E1  -1.535668933923970E2  
 1.504034229828851E11   -3.046335188943624E1   1.585599166867872E2  -9.379440438285499  -4.548479548274644E1  -9.385203052306835  -7.808816787950562E1  -2.126286690262574E1  -1.766090136385894E2  
 1.504156479217604E11   -2.267327545499013E1   1.490394539092623E2  -9.406962335545915  -9.451016129964292E1  -9.390607651819151  -1.272078664609377E2  -2.368428662478295E1   1.619136154048677E2  
 1.504278728606357E11   -2.044831355370922E1   1.211073368900020E2  -9.684511480625348  -1.418585306528236E2  -9.690145900610654  -1.744989765401317E2  -3.029898356664354E1  -1.712829149229865E2  
 1.504400977995110E11   -2.292974326553548E1   9.806844992778686E1  -9.516243837060214   1.724925834408167E2  -9.545966465365792   1.403517559387165E2  -2.514850134603088E1  -1.512830887221236E2  
 1.504523227383863E11   -2.360865713676893E1   1.099621984730920E2  -9.282100338642744   1.242612015688103E2  -9.281617400824764   9.127427813438261E1  -2.330265072544898E1  -1.543745220090556E2  
 1.504645476772616E11   -2.158716768232240E1   9.892345081451380E1  -9.387556100349981   7.478623042462893E1  -9.410146756865302   4.246413414868341E1  -2.238139283572219E1  -1.598041195341179E2  
 1.504767726161369E11   -2.201357793257319E1   7.061520872696859E1  -9.666848718169087   2.838082973942183E1  -9.673240024325821  -4.250009784776782  -2.036366595523819E1  -1.590492162259067E2  
 1.504889975550122E11   -3.173755192534842E1   3.221807437135122E1  -9.490328303058114  -1.769853646033885E1  -9.494272268301954  -5.068412179993301E1  -1.849893631326279E1  -1.776217698884996E2  
 1.505012224938875E11   -2.614094967233692E1   1.588381856778098E2  -9.401080606458482  -6.660643521239291E1  -9.408125358724144  -9.926873690341733E1  -1.851278987210891E1   1.625543257005130E2  
 1.505134474327628E11   -1.979844964221635E1   1.226540950850972E2  -9.622917022253924  -1.148390494234808E2  -9.601301553018361  -1.472300014298587E2  -2.047779991051885E1   1.438036611592374E2  
 1.505256723716382E11   -1.891188385857936E1   8.499500184352225E1  -9.753908512072112  -1.604631624326227E2  -9.759279062815585   1.675006652875423E2  -2.258953081804741E1   1.443890374225108E2  
 1.505378973105135E11   -2.288878203290003E1   6.051954575709632E1  -9.405265495670385   1.524835063002114E2  -9.404883390438574   1.199683885278393E2  -2.383298591729466E1   1.354665442510446E2  
 1.505501222493888E11   -2.568105545966146E1   8.763270447477677E1  -9.404632549396952   1.026500376762936E2  -9.402089980532921   7.087314203692074E1  -2.729077398550808E1   1.410223839875771E2  
 1.505623471882641E11   -2.084232896615121E1   8.944705042238775E1  -9.831452656530828   5.466541675255724E1  -9.828440852945924   2.303347913594857E1  -2.724130010676921E1   1.770487530729226E2  
 1.505745721271394E11   -1.912290492446529E1   5.548998605786479E1  -9.858916026080058   1.070174960741577E1  -9.869397288462823  -2.091777362747568E1  -2.150312401359251E1   1.664517155912036E2  
 1.505867970660147E11   -2.287844558557708E1   2.476410666426916E1  -9.457344459694472  -3.690348101154506E1  -9.446509159926096  -6.874992221781857E1  -2.210942400803805E1   1.358704824510371E2  
 1.505990220048900E11   -2.907060920574138E1   4.699459305455225E1  -9.466862997871033  -8.639023932921219E1  -9.494812059121399  -1.180015292470266E2  -2.661959305221540E1   1.235754977298777E2  
 1.506112469437653E11   -2.320222390853381E1   6.065852467582024E1  -9.849629442531047  -1.331748891490805E2  -9.834475241962881  -1.647138993260934E2  -2.845262480439959E1   1.791016208572940E2  
 1.506234718826406E11   -2.189536496660782E1   1.775077376152433E1  -9.641274444728975  -1.781107542199804E2  -9.654013965649002   1.503047422829412E2  -2.145204256912132E1   1.650468116248453E2  
 1.506356968215159E11   -2.772341360693295E1  -3.300642735379595E1  -9.346398856157855   1.336877901947233E2  -9.360854994830858   1.018735399406013E2  -2.095499492304319E1   1.373077059849175E2  
 1.506479217603912E11   -3.750699974030999E1   1.510939792090958E2  -9.392866239382242   8.486713614081866E1  -9.403372129023289   5.278298146617505E1  -2.315166040747768E1   1.188625907408517E2  
 1.506601466992665E11   -2.542633411704486E1   7.488352395128342E1  -9.646268074141464   3.817983907376566E1  -9.655858400004849   6.199510377708868  -2.604699332230174E1   1.360366369176594E2  
 1.506723716381418E11   -2.483722441370010E1   1.207340626269680E1  -9.425749396796718  -8.254644114671798  -9.438494055917898  -4.010457980897230E1  -2.195805370437657E1   1.342747870933483E2  
 1.506845965770171E11   -2.913365835026454E1  -6.751381845905850E1  -9.276506608825683  -5.658269978192639E1  -9.295116873537605  -8.906411200764615E1  -2.095838717537764E1   1.099046268722277E2  
 1.506968215158924E11   -2.718058430808387E1  -1.738323245316044E2  -9.447110487750676  -1.052352044950427E2  -9.467942415549890  -1.373756372626525E2  -2.242103731305385E1   8.108278575118584E1  
 1.507090464547677E11   -2.398946670794097E1   1.192591038789570E2  -9.559980236124019  -1.509850709371642E2  -9.581011751665512   1.772001120476211E2  -2.736902096867949E1   6.663988679649161E1  
 1.507212713936430E11   -2.599329633503297E1   8.742209699079363E1  -9.261747324662345   1.620274483118101E2  -9.283708453388105   1.298515880014430E2  -3.037365324959530E1   5.866199888152375E1  
 1.507334963325183E11   -2.673212133386548E1   9.055784695573929E1  -9.175716236502129   1.126242507338747E2  -9.209267016035064   8.063328070278919E1  -4.230991826336614E1   4.366630934235065E1  
 1.507457212713937E11   -2.385358177847503E1   8.669621582393002E1  -9.395293411575297   6.484944194975424E1  -9.427657351325479   3.236397999421938E1  -3.573655109182659E1  -1.743646964147438E2  
 1.507579462102690E11   -2.249471029701385E1   5.716547623377455E1  -9.374822220295677   1.830670190326102E1  -9.403836595757605  -1.340652934619983E1  -2.748830985414924E1   1.533893671795473E2  
 1.507701711491443E11   -2.630254988655859E1   3.374364926996994E1  -9.158962405340546  -2.955283693518986E1  -9.186745598785022  -6.131537589880653E1  -2.797701236467379E1   1.181770555208721E2  
 1.507823960880196E11   -2.917310595197048E1   5.974357365891808E1  -9.228332894058594  -7.913119451979551E1  -9.251947235918941  -1.106987093651391E2  -3.202419905511213E1   1.065252390316113E2  
 1.507946210268949E11   -2.436401126644466E1   5.979199107527249E1  -9.550531277403186  -1.264520088148095E2  -9.591008103232809  -1.583625527344996E2  -3.698360117753915E1   1.727581199384123E2  
 1.508068459657702E11   -2.313728486721692E1   1.794133013938636E1  -9.531027386600790  -1.721648487632676E2  -9.602929194407112   1.564517615676086E2  -2.605760487585626E1   1.681238143171171E2  
 1.508190709046455E11   -2.914113521548302E1  -3.999031449984425E1  -9.357419469129559   1.396472967114386E2  -9.402665292777776   1.080099767821607E2  -2.427404988257023E1   1.377907195786708E2  
 1.508312958435208E11   -3.260582605786743E1   1.566775020077426E2  -9.524659236289256   9.080134340326008E1  -9.573758386281249   5.942501519599246E1  -2.532362585707831E1   1.163912227414010E2  
 1.508435207823961E11   -2.388960689236659E1   8.681900606290694E1  -9.845139593766641   4.458443525908322E1  -9.891244276323782   1.329681777031364E1  -2.800265413262387E1   1.255680306265836E2  
 1.508557457212714E11   -2.381659487638172E1   3.081507845240601E1  -9.597484231459010  -1.162947227302982  -9.658667968124247  -3.264698874733926E1  -2.420182989490936E1   1.220705651344072E2  
 1.508679706601467E11   -3.235468078744073E1  -2.219415434548612E1  -9.443250924615057  -5.005233267538164E1  -9.493402110882995  -8.141679434922551E1  -2.435184782804932E1   9.673537990131028E1  
 1.508801955990220E11   -3.025693097217747E1   1.310414944945129E2  -9.738056322255272  -9.847564640673242E1  -9.796641855509396  -1.297342195501967E2  -2.791745423267221E1   7.666664223532342E1  
 1.508924205378973E11   -2.297004591285265E1   7.436602945371374E1  -9.900699766737191  -1.433639999749497E2  -9.955616054381380  -1.745759325801739E2  -3.141098805804637E1   1.315953937722952E2  
 1.509046454767726E11   -2.440548720392052E1   2.441012226407615E1  -9.552175576865277   1.698320444633035E2  -9.588853359892294   1.386488285243600E2  -2.516572408022547E1   1.152442495448213E2  
 1.509168704156479E11   -3.469925274259617E1   3.163802217852813E-1  -9.456724053404429   1.201516434753276E2  -9.498423020510382   8.941255793228908E1  -2.596694717885398E1   9.020407733044085E1  
 1.509290953545232E11   -2.849136953951535E1   9.412750593105936E1  -9.803029148688131   7.163209246247703E1  -9.865884145506838   4.073407791701703E1  -3.126750635880012E1   7.402317001948730E1  
 1.509413202933985E11   -2.307479661314455E1   4.580584797050408E1  -9.924557745701053   2.713645414688602E1  -9.984382785515710  -3.910884276089138  -2.875080367164098E1   1.563798560062133E2  
 1.509535452322738E11   -2.591669250303414E1  -1.479935516794304E1  -9.627829264899024  -2.051929051312273E1  -9.670045638699353  -5.106402632716216E1  -2.269872675955574E1   1.282254911299092E2  
 1.509657701711491E11   -3.164770609452810E1  -1.414370179203699E2  -9.675728795555214  -6.930440660515281E1  -9.703569982773509  -1.001405877479359E2  -2.167429880395986E1   1.043877998653065E2  
 1.509779951100244E11   -2.297530152197160E1   1.208710799067037E2  -1.005170965714159E1  -1.160318510168319E2  -1.009104129520540E1  -1.470859918425702E2  -2.323718889229943E1   8.922010152655061E1  
 1.509902200488998E11   -2.088619573627279E1   6.651204209895542E1  -9.874145210722507  -1.607224710250355E2  -9.903406747958279   1.683940437922072E2  -2.187807527700271E1   9.677273858913326E1  
 1.510024449877751E11   -2.352670087392258E1   3.022920825609944E1  -9.529565205834450   1.518333555407982E2  -9.549992048163109   1.205385773704283E2  -2.020509976012063E1   7.420960807421268E1  
 1.510146699266504E11   -3.068059191030329E1   3.893469881340282E1  -9.524451488110099   1.022414906551933E2  -9.553874705401189   7.157560996604317E1  -2.160574688375790E1   5.173304900511057E1  
 1.510268948655257E11   -2.424580268221286E1   6.853590746370168E1  -9.766158049266613   5.551972624145101E1  -9.805707581734044   2.423217916685017E1  -2.590540622139875E1   4.186529266212317E1  
 1.510391198044010E11   -2.163005679209174E1   3.220112323156020E1  -9.609737183552065   9.214396601018580  -9.613202738184445  -2.169194698892701E1  -2.544519611090785E1   7.700089511604264E1  
 1.510513447432763E11   -2.392734360462561E1  -2.267354250510407  -9.419219184172587  -3.892456406150573E1  -9.441578239829230  -6.999221347963943E1  -2.192724594528733E1   6.199204708009422E1  
 1.510635696821516E11   -3.337906184258101E1  -2.323421306281413E1  -9.479621037778923  -8.712384391129704E1  -9.533603806442480  -1.184640265260410E2  -2.226818697212028E1   3.761472794012719E1  
 1.510757946210269E11   -3.034020955492160E1   6.653776416876794E1  -9.586454319932834  -1.341977956053306E2  -9.626671056227254  -1.647592641570616E2  -2.613378583523381E1   2.631008670518521E1  
 1.510880195599022E11   -2.812264814687161E1   3.577350144488244E1  -9.383777536028743   1.783200537839221E2  -9.426479729803519   1.474792576757614E2  -2.638792996069867E1   4.496337468746681E1  
 1.511002444987775E11   -3.324756738856951E1   4.731403088949699E1  -9.377248302359487   1.295619593379644E2  -9.417552903516622   9.861670261282497E1  -2.563579858870963E1   3.523494870677342E1  
 1.511124694376528E11   -2.604064621595244E1   8.944501293143085E1  -9.659182850180585   8.185695594338637E1  -9.701359182149497   5.056353762283548E1  -2.790238874197492E1   2.294666150560972E1  
 1.511246943765281E11   -2.090345487344630E1   5.779639824018937E1  -9.733789676091394   3.613120571144722E1  -9.756095538957354   5.198635720097661  -3.166863092542408E1   7.587767406932200E1  
 1.511369193154034E11   -2.105447351652233E1   2.443792965138877E1  -9.477111173842244  -1.060325607949673E1  -9.522589498180681  -4.183688752676650E1  -2.298429139933222E1   6.992037520731155E1  
 1.511491442542787E11   -2.442095716785142E1   4.369114644887626  -9.438697846027424  -5.943508336427991E1  -9.494092803166613  -9.071493617152773E1  -2.110316437042785E1   3.860264295674453E1  
 1.511613691931540E11   -2.752120220318009E1   2.925726591527457E1  -9.632532572653824  -1.070015033434023E2  -9.696714486422806  -1.381976474342064E2  -2.288056031711572E1   9.459498876377538  
 1.511735941320293E11   -2.383971998136883E1   2.380554342724961E1  -9.543040657558736  -1.535666698550068E2  -9.593886940618029   1.753717241587532E2  -2.868980070159352E1   1.475271075253600E1  
 1.511858190709046E11   -2.551889041580086E1   2.733104214481971  -9.413501687591772   1.581749393699018E2  -9.441686383940510   1.274161570682319E2  -2.551916958900004E1   3.528698113418881E1  
 1.511980440097799E11   -3.147724025595259E1   2.334348221890078E1  -9.564197849901374   1.092667831309210E2  -9.614817986132429   7.820719208097924E1  -2.389779389214704E1   1.309053451047864E1  
 1.512102689486552E11   -2.381332982160783E1   5.926695058325150E1  -9.840007610424872   6.301117583550236E1  -9.887358985714471   3.222537809501148E1  -2.818278851610160E1  -1.973379883116558E1  
 1.512224938875306E11   -2.017152939877194E1   2.899303617751772E1  -9.646006342537801   1.707727666402337E1  -9.703194323379952  -1.400333572685734E1  -3.138505623605484E1   7.724121461564225E1  
 1.512347188264059E11   -2.092824787360728E1   4.175373327024682  -9.489113983447165  -3.154361110273376E1  -9.548981357489232  -6.285672936182023E1  -2.268298751811021E1   4.887118083008778E1  
 1.512469437652812E11   -2.356658252465793E1   2.398076745296013  -9.666412085158646  -7.981882312805428E1  -9.728065341191318  -1.114849897147548E2  -2.144063152913656E1   1.341217379546523E1  
 1.512591687041565E11   -2.090777550326898E1   1.340396128467316E1  -9.944522054074142  -1.260710040375985E2  -9.993306495145333  -1.577714408485277E2  -2.478059223979152E1  -2.430012425325297E1  
 1.512713936430318E11   -1.861230287071758E1  -1.236363596028799E1  -9.774320652597247  -1.724739982603537E2  -9.841203584389907   1.561462081479895E2  -3.660955922595851E1   5.242445702161257E1  
 1.512836185819071E11   -1.953691137217286E1  -4.355661672092485E1  -9.725084015028372   1.397016425352922E2  -9.790789558078558   1.077286568924904E2  -2.325476072408544E1   4.684177435154383E1  
 1.512958435207824E11   -2.439689814002654E1  -7.292909597104024E1  -9.922974147600511   9.265571798987577E1  -9.973599519751540   6.067139695763886E1  -2.143312720357268E1   9.282264143088099  
 1.513080684596577E11   -3.110294031998303E1  -2.614701134232967E1  -9.796921297735318   4.697559009334281E1  -9.842546335850191   1.493466277919418E1  -2.552620796643562E1  -1.233183129868767E1  
 1.513202933985330E11   -2.609773044269708E1  -2.759598770475723E1  -9.566007516213302  -1.112281651734019  -9.627777313748505  -3.330406163977147E1  -2.576167155985890E1   1.759228846604918E1  
 1.513325183374083E11   -2.691165561560410E1  -5.070964514244084E1  -9.655050133947874  -4.994325319245120E1  -9.722877485694191  -8.215632203022119E1  -2.161365834574202E1   3.540979357247909  
 1.513447432762836E11   -3.555556579976038E1  -4.091598320060047E1  -9.911965249744334  -9.647331121807331E1  -9.988993623040161  -1.287547128328713E2  -2.093723986837985E1  -3.381345283191801E1  
 1.513569682151589E11   -2.706064171322158E1  -9.295210376469626  -9.698352104062732  -1.419940242650182E2  -9.752174096055962  -1.747096320333251E2  -2.627331248363815E1  -7.423770979282035E1  
 1.513691931540342E11   -2.595684311145466E1  -5.215610995659598E1  -9.509417561902648   1.692011641943111E2  -9.569952339967024   1.368513321059879E2  -4.229126898872658E1  -2.918882032772697E1  
 1.513814180929096E11   -3.133876965985836E1  -1.197244837353966E2  -9.640499997730821   1.205425709283561E2  -9.682730531072698   8.802724727210423E1  -3.025850533890296E1   8.590681107636710  
 1.513936430317849E11   -2.801071388344983E1   9.287030079038183E1  -9.900732363054789   7.414420046254995E1  -9.961946054792126   4.150461639382537E1  -3.026382665605137E1  -3.459618268790990E1  
 1.514058679706602E11   -2.247807779033484E1   2.835173205093179E1  -9.720700789449055   2.819683046639980E1  -9.781736284529485  -4.414170340935272  -3.661590186162412E1   1.209553620621568E2  
 1.514180929095355E11   -2.191791623941179E1  -1.386511902316363E1  -9.602402472239485  -2.004486331077598E1  -9.655513956362286  -5.271312421245841E1  -2.382136907227959E1   5.968131800287932E1  
 1.514303178484108E11   -2.569552381995791E1  -4.535578964570858E1  -9.738466286115717  -6.818394082817991E1  -9.778205483489021  -1.006484717042432E2  -2.102190799198337E1   1.356910398503954E1  
 1.514425427872861E11   -2.893239758950837E1  -6.482187503466228  -9.721874832660971  -1.137525558808379E2  -9.771275782908631  -1.467224152103665E2  -2.370067405132137E1  -3.105145771968433E1  
 1.514547677261614E11   -2.348559105144727E1  -2.036587701301130E1  -9.496243484744854  -1.617396376111053E2  -9.556511531262716   1.658437377020957E2  -3.746276349666837E1  -2.514791225607908E1  
 1.514669926650367E11   -2.280734352076724E1  -5.334621327739230E1  -9.486589131215428   1.495121001583750E2  -9.531956527288694   1.168947808035919E2  -2.594490591634263E1   4.194829770811706E1  
 1.514792176039120E11   -2.642107954480725E1  -8.903874737209949E1  -9.688519620655121   1.018256073283225E2  -9.730100580204063   6.896416455653808E1  -2.181891787180343E1   5.911797838169436  
 1.514914425427873E11   -3.423921017637203E1  -5.522111979709892E1  -9.660857447801483   5.610772749762202E1  -9.688095065750684   2.292728311973129E1  -2.378425282007270E1  -3.323354917339158E1  
 1.515036674816626E11   -2.742992843522727E1  -5.998095297748090E1  -9.491658628285475   8.013679219176410  -9.511462697461381  -2.520960483259180E1  -3.211063838530327E1  -3.261150424141681E1  
 1.515158924205379E11   -2.628925301257434E1  -1.079936968413809E2  -9.584882729631607  -4.113111043408118E1  -9.616248164550036  -7.398222318172363E1  -2.860501031610424E1   1.513989957500004E1  
 1.515281173594132E11   -2.664963668265245E1   1.737362822127802E2  -9.861095223000467  -8.749065774728827E1  -9.886301530653498  -1.207186156501972E2  -2.660092584770750E1  -1.330190458375635E1  
 1.515403422982885E11   -2.598890236258482E1   8.450135471810188E1  -9.731541299079174  -1.339991726370357E2  -9.763732292141292  -1.667904356189218E2  -3.978536036861286E1   1.055098020815591E1  
 1.515525672371638E11   -2.560000627407702E1   1.919106609810787E1  -9.595012165090090   1.779207093043748E2  -9.628303328009094   1.447739266979971E2  -2.453833365861114E1   5.841495996874654E1  
 1.515647921760391E11   -2.816254923489111E1  -4.348303963864871E1  -9.736944553736690   1.295642255839595E2  -9.784628290652288   9.633380107126870E1  -1.969077700568496E1   2.717637618390069E1  
 1.515770171149144E11   -3.518544701964078E1  -1.791472639830470E2  -9.992007862497900   8.356681743184545E1  -1.003895716591593E1   5.057021572961011E1  -1.912384399238754E1  -7.281353549302999  
 1.515892420537897E11   -2.810924558883925E1   7.731152788829704E1  -9.725861542018611   3.760526067746323E1  -9.765951351411385   4.716939456115093  -2.297041199548763E1  -1.891512178239732E1  
 1.516014669926650E11   -2.596666967997758E1   4.381085943189452E1  -9.566149165493988  -1.126455325328472E1  -9.599475550664488  -4.408749319010927E1  -2.134345529878710E1   9.910407532559784E-2  
 1.516136919315403E11   -2.584554527694489E1   2.585920780373566E1  -9.735858337575662  -5.980045209369415E1  -9.764128490400289  -9.239464556775177E1  -1.771444503200093E1  -1.867217303376923E1  
 1.516259168704157E11   -2.375653810719370E1   2.226176535107638E1  -9.882585318936949  -1.058576704788028E2  -9.926011151155457  -1.384852604053839E2  -1.711381302616807E1  -5.451269751338869E1  
 1.516381418092910E11   -2.208954127098981E1  -1.069269673889481E1  -9.669186322225755  -1.524622386322043E2  -9.711239060042344   1.746896115976124E2  -2.035164639309656E1  -9.124309609425056E1  
 1.516503667481663E11   -2.496069253907448E1  -5.126474274648793E1  -9.608740230759370   1.588651494109293E2  -9.648999238033778   1.263440832300334E2  -2.879316839992023E1  -1.121778482588656E2  
 1.516625916870416E11   -3.954819180444045E1  -1.566207320148911E2  -9.825297032997343   1.107401909244687E2  -9.854253403101689   7.836730283480620E1  -3.053991024009504E1  -4.635382335155567E1  
 1.516748166259169E11   -2.385454306404197E1   5.690344309240859E1  -9.882092905368397   6.501588596240373E1  -9.921368084029659   3.289531202182864E1  -2.632839797383985E1  -9.183162886279638E1  
 1.516870415647922E11   -2.028103843361296E1   8.301073030403256  -9.691777714686385   1.759869770803958E1  -9.737933316345680  -1.446583112497847E1  -2.832988764193743E1   1.758939788798682E2  
 1.516992665036675E11   -2.100868395872009E1  -3.604188340830637E1  -9.736152203349942  -3.077654207625003E1  -9.784977324144382  -6.296256749430563E1  -2.422687927917696E1   8.545379333514171E1  
 1.517114914425428E11   -2.847222590999624E1  -9.103246615943456E1  -9.902898225909087  -7.717810363654867E1  -9.930576481677541  -1.093183121273581E2  -2.238582031997566E1   3.103904999833321E1  
 1.517237163814181E11   -3.033300673881592E1   6.930691454605763E1  -9.621191608675629  -1.234394617737036E2  -9.675050687754620  -1.553261678869595E2  -2.575081298809108E1   1.800109197442860E1  
 1.517359413202934E11   -2.283250865544099E1   2.916132239261049E1  -9.467270870895108  -1.720653332155937E2  -9.508837563774401   1.560309583859837E2  -2.179006412018063E1   3.832467809128085E1  
 1.517481662591687E11   -2.109369791909831E1  -5.370046087584148E-1  -9.610158527207076   1.391638906735302E2  -9.648981223014728   1.070348461728667E2  -1.716872123491541E1   1.604346209375494E1  
 1.517603911980440E11   -2.257758684557390E1  -1.289204186722925E1  -9.806547255303849   9.320023291577810E1  -9.853243104312805   6.093983323929705E1  -1.573941884774665E1  -1.855823050439038E1  
 1.517726161369193E11   -2.118964734083417E1  -1.837506071348313E1  -9.533105119287061   4.674911502102818E1  -9.574018049781461   1.487261403360011E1  -1.801450141383068E1  -4.971399185003553E1  
 1.517848410757946E11   -2.163123894171986E1  -3.430337644997790E1  -9.358209777939919  -2.190709540192495  -9.404871943559961  -3.399353589524529E1  -2.295656499801764E1  -5.085846666621738E1  
 1.517970660146699E11   -2.335761356800523E1  -4.089476410653330E1  -9.486961358564106  -5.128756657840824E1  -9.516911325345033  -8.305085847454063E1  -2.092454704614024E1  -2.820745306708729E1  
 1.518092909535452E11   -2.418936645035659E1  -2.430111698122667E1  -9.733404636969153  -9.839935094089401E1  -9.767103714552549  -1.301337305985383E2  -1.790218179593783E1  -5.189813839609872E1  
 1.518215158924205E11   -1.964597812583935E1  -3.100559249325596E1  -9.656864545908460  -1.449771375182798E2  -9.688798612127108  -1.769450883214582E2  -1.949027001243193E1  -8.982314684217673E1  
 1.518337408312958E11   -1.830423908717172E1  -6.022312839246149E1  -9.649313880075630   1.671547540017302E2  -9.687423200455164   1.350856461916469E2  -2.774853544821644E1  -1.211429978287040E2  
 1.518459657701711E11   -1.958161693144559E1  -9.608420649567903E1  -9.887650733063072   1.194729174324231E2  -9.924561647006623   8.773865966094976E1  -2.896269031573599E1  -1.941644441870076E1  
 1.518581907090465E11   -2.682680067302269E1  -1.357549861702245E2  -9.842237300604303   7.443795918449368E1  -9.875541108212067   4.259240669387578E1  -2.438993024583242E1  -5.772230966548681E1  
 1.518704156479218E11   -3.446263188301215E1  -3.766658926564919E1  -9.564999526684041   2.658451491207701E1  -9.589713458294922  -5.300342294723941  -3.066156823711193E1  -8.443373780275833E1  
 1.518826405867971E11   -2.750668419367170E1  -5.821166642753817E1  -9.634665077659838  -2.274020136021727E1  -9.652215473739624  -5.385090959242469E1  -2.983364876178856E1   1.021733372949830E1  
 1.518948655256724E11   -3.389211223709409E1  -9.885947996545984E1  -9.853769890652503  -6.903642534244729E1  -9.859176638823209  -1.005257089956286E2  -2.184191557450169E1  -2.268088064484718E1  
 1.519070904645477E11   -2.898706419592447E1   1.670103238307879E1  -9.615534399787173  -1.154446769037286E2  -9.635152372694483  -1.468454988338513E2  -2.225359945828019E1  -6.803230642919611E1  
 1.519193154034230E11   -2.277017604659158E1  -1.983342952845641E1  -9.510857388489262  -1.640420851481625E2  -9.510222933537305   1.640894088868615E2  -3.001359612446766E1  -1.161891844338836E2  
 1.519315403422983E11   -2.159614142826204E1  -5.626612900503949E1  -9.686115681271527   1.474762844333410E2  -9.683119748333004   1.155045500425247E2  -2.903126367668861E1   4.974964060967066E1  
 1.519437652811736E11   -2.585262410044669E1  -9.552644661773373E1  -9.963520728815915   1.015120015581820E2  -9.976839641870759   6.940543094085803E1  -2.119154609417256E1  -2.022397730043929  
 1.519559902200489E11   -3.260612677927650E1  -2.397243575166903E1  -9.659884137483642   5.580519953190157E1  -9.675575448615652   2.400356980421776E1  -2.246813011930937E1  -4.198300301981818E1  
 1.519682151589242E11   -2.492582313302837E1  -2.925511595785483E1  -9.437311540865435   6.687434661625216  -9.459794226228929  -2.516476854427593E1  -2.842006283329086E1  -2.606801153053715E1  
 1.519804400977995E11   -2.308462639989563E1  -5.258187145116294E1  -9.630798798358590  -4.208460590880291E1  -9.658238873933790  -7.362627523881295E1  -2.158472413047418E1   4.020304822397919E-1  
 1.519926650366748E11   -2.602274136899809E1  -6.645350804404079E1  -9.909662792115938  -8.831130136222970E1  -9.930652210944968  -1.199493607963781E2  -1.752370163036273E1  -3.102895351964627E1  
 1.520048899755501E11   -2.370618871053334E1  -4.644771762720934E1  -9.670733832000726  -1.340795473004854E2  -9.684820947558958  -1.665754609801623E2  -1.848044868137547E1  -6.690449870554572E1  
 1.520171149144254E11   -2.108282381520350E1  -6.940110980439611E1  -9.569076291928509   1.769950840341294E2  -9.591851099478234   1.452545958194345E2  -2.407020654733422E1  -8.378401976270959E1  
 1.520293398533007E11   -2.133698856778374E1  -1.021260240631442E2  -9.812193003161749   1.295984936475737E2  -9.854501140099254   9.754006913286635E1  -2.427072387281906E1  -4.230949449725122E1  
 1.520415647921760E11   -2.783299665024455E1  -1.367479527166808E2  -9.702244435814270   8.468924313014442E1  -9.741740876470637   5.218019656653266E1  -2.083891268178893E1  -6.554706553033908E1  
 1.520537897310513E11   -3.258015958447731E1  -6.565611862621634E1  -9.393201816680831   3.631573261041779E1  -9.455570843265340   3.754079653519140  -2.335247617795841E1  -9.549066159422152E1  
 1.520660146699266E11   -2.625796356016179E1  -7.788779053228646E1  -9.441697270095164  -1.280849820307640E1  -9.499478947027370  -4.497941172794373E1  -3.435436769334788E1  -1.010851138491075E2  
 1.520782396088019E11   -2.631262467809096E1  -1.221248773616915E2  -9.715692568921307  -5.956038883839162E1  -9.767456166896176  -9.214291358041984E1  -2.595108245165505E1  -2.116767057384709E1  
 1.520904645476773E11   -3.668296093326675E1   1.578957541854112E2  -9.524854706018079  -1.054168869022365E2  -9.560185417766812  -1.375782671028626E2  -2.343350729637518E1  -6.186424209475513E1  
 1.521026894865526E11   -3.194279465632589E1   1.205048920330860E1  -9.292511157681195  -1.539277333170530E2  -9.353865103795169   1.734402552435822E2  -2.980209913912655E1  -8.986508269625340E1  
 1.521149144254279E11   -2.725303372357061E1  -2.352724084624568E1  -9.382052354586939   1.565888925209424E2  -9.437767656743310   1.246631909837836E2  -3.002687022246479E1   2.160025904188872E1  
 1.521271393643032E11   -2.727975261524979E1  -3.797386011761917E1  -9.633327922183881   1.097157216083511E2  -9.705948104711659   7.694217434943826E1  -2.051664451293652E1  -6.653318129213457  
 1.521393643031785E11   -2.426456768172987E1  -3.727920099089820E1  -9.549422762897271   6.323470550584575E1  -9.614357315378310   3.078625243472129E1  -1.890351526241938E1  -4.546372253504523E1  
 1.521515892420538E11   -2.262055701900209E1  -6.081233827127980E1  -9.442432875089514   1.460152540070033E1  -9.496647471878585  -1.761851094709261E1  -2.206197497475985E1  -7.294902747543380E1  
 1.521638141809291E11   -2.317262398590851E1  -8.290078991239953E1  -9.597305064575789  -3.369774610822059E1  -9.681534027432681  -6.631278278219783E1  -2.706848902819894E1  -4.162088420847417E1  
 1.521760391198044E11   -2.767162908324261E1  -1.021457671908968E2  -9.855450894061008  -7.984823417374898E1  -9.912956563097744  -1.122375178155086E2  -2.023655780852726E1  -3.642350502131598E1  
 1.521882640586797E11   -2.781672749463949E1  -5.551900220553578E1  -9.620743161058826  -1.259583144784680E2  -9.682386233759353  -1.587549858787601E2  -1.912163880390734E1  -6.787867524154228E1  
 1.522004889975550E11   -2.387111233878098E1  -7.246170197918377E1  -9.542440188645367  -1.746471415706333E2  -9.606590252593584   1.524941482376479E2  -2.222652102030815E1  -9.313256650806453E1  
 1.522127139364303E11   -2.407711224962486E1  -1.014765115655503E2  -9.789862493646997   1.369727372008160E2  -9.850582250315405   1.039949162113012E2  -2.824147383423004E1  -6.613353489978633E1  
 1.522249388753056E11   -3.413139587615263E1  -1.340393814313989E2  -9.962772798597213   9.144974310422523E1  -1.003241761824615E1   5.839240188448001E1  -2.182431578645451E1  -5.842092747079239E1  
 1.522371638141809E11   -2.635085792045199E1  -2.893921381838165E1  -9.718840455662271   4.429455698052010E1  -9.787869605120640   1.131946996620455E1  -2.168235451362350E1  -9.453919733498771E1  
 1.522493887530562E11   -2.078590962429631E1  -6.220339314328140E1  -9.818000606279739  -4.529642417813705  -9.880826577692412  -3.766390519451004E1  -2.866948777952590E1  -1.385960002254329E2  
 1.522616136919316E11   -1.936093424494991E1  -1.018705030801889E2  -1.017695600303747E1  -5.062818359393962E1  -1.025788204767539E1  -8.401932630445423E1  -3.037233589114661E1   1.062509695363461E1  
 1.522738386308069E11   -2.247589771559817E1  -1.415500038441438E2  -9.919307591833851  -9.472393584818130E1  -9.994220204426894  -1.279695250204357E2  -2.501556740511389E1  -2.921280669217681E1  
 1.522860635696822E11   -2.900686222871524E1  -1.638668459751263E2  -9.515256042121767  -1.431433408169607E2  -9.576593088977313  -1.768497950933579E2  -2.528039123781277E1  -3.172779994584259E1  
 1.522982885085575E11   -4.670074823856253E1  -1.119582573481439E2  -9.568907855031014   1.671961233879815E2  -9.631294474211325   1.334102731252598E2  -2.310790004364075E1  -1.705261281299764E1  
 1.523105134474328E11   -3.377622289153006E1  -5.579012372318748E1  -9.956994673192838   1.200110459673650E2  -1.002277263630502E1   8.625721758431324E1  -1.802530822902570E1  -2.785865658119376E1  
 1.523227383863081E11   -2.683393007040518E1  -3.504816426421339E1  -9.807319156857361   7.517825637188987E1  -9.869326427772856   4.118410528407813E1  -1.634218177467287E1  -5.889951428370542E1  
 1.523349633251834E11   -2.142541179619623E1  -6.798503678196840E1  -9.593033247638806   2.648228983685632E1  -9.663673482983585  -6.993720493031913  -1.757226432530702E1  -8.767954276309956E1  
 1.523471882640587E11   -2.040712191067762E1  -1.023333761508034E2  -9.704868207185310  -2.222687115231514E1  -9.762623522915961  -5.542901497118146E1  -2.236160374481632E1  -1.059863399850404E2  
 1.523594132029340E11   -2.195912418351117E1  -1.389269554345466E2  -9.924726141916944  -6.863448423876066E1  -9.992734283457333  -1.011769425572445E2  -2.435338459413501E1  -7.575060112020790E1  
 1.523716381418093E11   -2.977959583399519E1  -1.590323975296410E2  -9.607416558235514  -1.146787124670494E2  -9.653746681359529  -1.474683577060200E2  -2.309397343253187E1  -8.581426887182147E1  
 1.523838630806846E11   -3.053454504458304E1  -1.023314986612652E2  -9.489497881143674  -1.635051565231539E2  -9.548325414997432   1.626479119878729E2  -2.614718282242281E1  -9.477391009970057E1  
 1.523960880195599E11   -2.599865137486970E1  -1.197192141820002E2  -9.762484427196746   1.480736292779260E2  -9.808829450964200   1.145597493169058E2  -2.877477076000915E1  -4.384213039105842E1  
 1.524083129584352E11   -2.837574754035717E1  -1.623712956695280E2  -9.834038567851781   1.030374493927402E2  -9.869586161153270   6.972449436097134E1  -2.188670575456523E1  -5.014156785696515E1  
 1.524205378973105E11   -3.957150405330170E1  -1.099046593324387E2  -9.453096809979199   5.544444042865032E1  -9.496673945886943   2.201374591670953E1  -2.193485969706345E1  -7.123709374813969E1  
 1.524327628361858E11   -3.040989685994835E1  -1.027010708128922E2  -9.432507681665829   5.823830398118639  -9.497916670623509  -2.754252239269907E1  -2.469665639703034E1  -7.552465834066184E1  
 1.524449877750611E11   -2.898519884344889E1  -1.374417332157861E2  -9.776086578402724  -4.215414324792425E1  -9.843947416363712  -7.532184610746153E1  -2.361444772336456E1  -4.132313605517339E1  
 1.524572127139364E11   -3.612259313655196E1   1.364454224865945E2  -9.777379816464251  -8.662723671559074E1  -9.821882360398561  -1.196469233542344E2  -1.911031763013577E1  -5.808445145639330E1  
 1.524694376528117E11   -3.116472998218466E1  -3.044908611680676E1  -9.401588735921441  -1.346494075484046E2  -9.432646713734824  -1.676426487801635E2  -1.952225442127483E1  -7.873982385769276E1  
 1.524816625916870E11   -2.881846266204187E1  -7.998586872654418E1  -9.366094405903430   1.756896680044476E2  -9.425407500042185   1.429133985592738E2  -2.220430095737626E1  -8.350274278978314E1  
 1.524938875305624E11   -3.350974456225121E1  -1.156312741418314E2  -9.688547463619983   1.278604343403637E2  -9.742870179080308   9.470990753836880E1  -2.146814809746234E1  -5.840988581393593E1  
 1.525061124694377E11   -3.035751029700955E1  -3.694950817905663  -9.706846483464480   8.235416472717094E1  -9.757422159348872   4.925920082098514E1  -1.751291427621503E1  -7.193094587732196E1  
 1.525183374083130E11   -2.207875249086844E1  -5.081250778611699E1  -9.499801741117949   3.440729668802178E1  -9.555863312927695   1.406713675883680  -1.737056471626224E1  -9.613669738955592E1  
 1.525305623471883E11   -2.051157985891799E1  -9.031410638441592E1  -9.614390878922048  -1.445237636378612E1  -9.661440007009539  -4.712540246485514E1  -2.026911783723443E1  -1.136992251450840E2  
 1.525427872860636E11   -2.189003453170195E1  -1.278969334436556E2  -9.958503704034206  -6.137346824375314E1  -1.000770213526049E1  -9.358418433654748E1  -2.265470262152926E1  -8.959614184708971E1  
 1.525550122249389E11   -3.134898950333747E1  -1.375448622370678E2  -9.718350853654567  -1.064279675628501E2  -9.776489820101645  -1.386906468256391E2  -1.956039853674434E1  -9.353693239337653E1  
 1.525672371638142E11   -2.501805671278932E1  -8.569726394194920E1  -9.505032867274270  -1.551706873704409E2  -9.550539349648304   1.726839427253246E2  -1.946596516042430E1  -1.085920456043886E2  
 1.525794621026895E11   -2.122061185734831E1  -1.153940417972028E2  -9.692523684754873   1.560282170954233E2  -9.737358173709747   1.240522242705741E2  -2.136099062146500E1  -1.169717669607726E2  
 1.525916870415648E11   -2.188174118054232E1  -1.545480798072144E2  -9.809652542173458   1.103678737594547E2  -9.866432786420377   7.876258758039387E1  -2.106692152667672E1  -1.125225103088629E2  
 1.526039119804401E11   -2.997297425246631E1  -1.733069288960473E2  -9.447783814270036   6.320147077890299E1  -9.501900238730682   3.087695992849867E1  -2.155827376641016E1  -1.262242057922552E2  
 1.526161369193154E11   -2.785799846197230E1  -1.169862981934739E2  -9.413773522072374   1.379574374418437E1  -9.458726784269679  -1.866673561714627E1  -2.356252724927588E1  -1.346258464185115E2  
 1.526283618581907E11   -2.274667481910659E1  -1.421971548801898E2  -9.785856977150203  -3.490490868554966E1  -9.829769290510532  -6.675865308166164E1  -2.862618938507029E1  -1.258082924274353E2  
 1.526405867970660E11   -2.238550179320996E1   1.677904753356641E2  -9.970209453351654  -7.904316614600998E1  -1.000665849580153E1  -1.109393046630221E2  -2.399307934981422E1  -9.804688931301118E1  
 1.526528117359413E11   -2.828316182328172E1   1.068083068660527E2  -9.549020639095456  -1.259995244304495E2  -9.580226948410873  -1.578365059576751E2  -2.373980075940330E1  -1.257469336994907E2  
 1.526650366748166E11   -3.704898922348114E1  -1.025504548592238E1  -9.479558335169040  -1.756178727761113E2  -9.528251195937623   1.525346000531526E2  -2.970249370992698E1  -1.403561723769111E2  
 1.526772616136919E11   -3.200210041001178E1  -1.075902744271685E2  -9.787110477484815   1.364493934712124E2  -9.840587120006171   1.050285314160987E2  -2.919820753547177E1  -4.729067161619346E1  
 1.526894865525672E11   -4.512716003990504E1  -1.699228500132709E2  -9.743149869073323   9.176755186983162E1  -9.786712881729482   5.942479966549227E1  -2.168469681563424E1  -7.209123627424457E1  
 1.527017114914425E11   -2.883703564000328E1  -5.711654507163416E1  -9.495934665560945   4.290877093944096E1  -9.551067935515745   1.118781511289974E1  -2.065012159483687E1  -9.510206730319463E1  
 1.527139364303178E11   -2.398769448966952E1  -1.043281031919901E2  -9.619018566522701  -5.882079471633646  -9.684324393896880  -3.755156635035272E1  -2.163595027191236E1  -1.085718527205174E2  
 1.527261613691932E11   -2.353409220444015E1  -1.541051521025867E2  -9.910751990211098  -5.191537269106691E1  -9.954032817712903  -8.400830253302509E1  -2.117933109974230E1  -1.019923846959267E2  
 1.527383863080685E11   -3.056946566107526E1   1.327148906089352E2  -9.641531874302423  -9.790711152389028E1  -9.690111250362484  -1.295268151894535E2  -1.923013701338335E1  -1.201817187366760E2  
 1.527506112469438E11   -2.861698633177278E1  -4.307157631706230E1  -9.482689287972562  -1.470150062238000E2  -9.553615179477907  -1.786826340991209E2  -1.969952210672047E1  -1.421834476722306E2  
 1.527628361858191E11   -2.171828900515138E1  -1.027928227641227E2  -9.772644099411446   1.641882193361162E2  -9.817801005569445   1.329703719700241E2  -2.238763239890965E1  -1.681256252570188E2  
 1.527750611246944E11   -2.042414379423353E1  -1.540507419257437E2  -9.942444728014380   1.194599221600559E2  -9.980610292477513   8.811834628190601E1  -2.757997185619409E1  -1.597656411995357E2  
 1.527872860635697E11   -2.326964119597671E1   1.637943004712045E2  -9.518239432645407   7.308176626154216E1  -9.558180767146551   4.121363824154084E1  -2.722724679445961E1  -1.727367382532848E2  
 1.527995110024450E11   -2.850024901375255E1   1.417843268903020E2  -9.384819911491208   2.356192481345446E1  -9.413085591662329  -8.232447214010449  -3.360767088470304E1   1.416767094139842E2  
 1.528117359413203E11   -3.164685844246810E1   1.524029890798118E2  -9.651665075922692  -2.578021758130912E1  -9.688218756046686  -5.695296197893759E1  -3.132625411609839E1   1.744282197907491E1  
 1.528239608801956E11   -2.862943685455832E1   1.156340327274555E2  -9.859223517770328  -7.081923413179707E1  -9.894041753584336  -1.020610903747005E2  -2.280136823364436E1  -4.366793846488002E1  
 1.528361858190709E11   -2.917870297794413E1   1.850835940168678E1  -9.506725020824312  -1.176448574034273E2  -9.551310074979320  -1.489330890633448E2  -2.120991288621422E1  -8.292806877547265E1  
 1.528484107579462E11   -2.710934026801930E1  -7.125505756795205E1  -9.464611840147592  -1.668120864701355E2  -9.505030794448661   1.617787369493693E2  -2.217782695227540E1  -1.073734161893068E2  
 1.528606356968215E11   -2.567690668228715E1  -1.378264259325495E2  -9.739953388924384   1.451395120968849E2  -9.776278235478067   1.137869765957958E2  -2.520647589144343E1  -1.078990928606985E2  
 1.528728606356968E11   -2.812341360824146E1   1.467433972136130E2  -9.733119000002180   1.000837469899179E2  -9.772471804158291   6.810605216759574E1  -2.247703487707276E1  -1.029790898223141E2  
 1.528850855745721E11   -3.237036681893839E1   1.539327137747561E1  -9.473429853683376   5.203676698216526E1  -9.487899193161727   2.012894469952920E1  -2.212510348829568E1  -1.232733306268293E2  
 1.528973105134474E11   -2.669315888993750E1  -7.771314750351144E1  -9.579690186439445   2.300676215136608  -9.614985286142359  -2.924822338609249E1  -2.442774369384568E1  -1.388784738948814E2  
 1.529095354523227E11   -2.428855693724230E1  -1.379287713154556E2  -9.929078898545258  -4.400382330586105E1  -9.968854406626164  -7.586561575827723E1  -2.697860327450269E1  -1.143999176103511E2  
 1.529217603911981E11   -2.785193431204159E1   1.567576168490232E2  -9.693103400060583  -8.918956418192268E1  -9.741175632086137  -1.212931878477807E2  -2.322630022322958E1  -1.245873398226858E2  
 1.529339853300734E11   -4.484289452561918E1   7.193314697611155  -9.460185403068063  -1.381839334860131E2  -9.498356150859419  -1.699369259032802E2  -2.475839487295776E1  -1.433589299901315E2  
 1.529462102689487E11   -2.911183618619987E1  -1.160399357013320E2  -9.675437553529317   1.729028616869784E2  -9.718533817732293   1.408142042186744E2  -2.863726105221158E1  -1.439365115403325E2  
 1.529584352078240E11   -2.582183821516621E1   1.777661127240689E2  -9.889711073105096   1.272775985653430E2  -9.917393995668428   9.494254746058815E1  -2.577070840341502E1  -1.087379985895230E2  
 1.529706601466993E11   -2.805403127390896E1   9.629122941586415E1  -9.606021874157161   8.076387603193321E1  -9.639011154625505   4.816150805355102E1  -2.271063485611929E1  -1.348708371113757E2  
 1.529828850855746E11   -2.905363294454663E1  -8.982448319736724  -9.536719349036332   3.168095242023911E1  -9.571469956173647  -8.542901407897280E-1  -2.312959949880003E1  -1.612823903880698E2  
 1.529951100244499E11   -2.621152438438906E1  -9.080836157662205E1  -9.818108721319955  -1.667149250637681E1  -9.856080447024411  -4.958820506279756E1  -2.573480121474637E1   1.642112401255437E2  
 1.530073349633252E11   -2.638100298995429E1  -1.626513448494245E2  -9.982013948233330  -6.206934081723087E1  -1.002644053733375E1  -9.440530604110198E1  -3.457153129054476E1   1.538015723826093E2  
 1.530195599022005E11   -3.187656597855713E1   1.170637750557023E2  -9.660368961323707  -1.087465603033852E2  -9.699170501227947  -1.415979151991469E2  -3.398152320863270E1   1.484218441828725E2  
 1.530317848410758E11   -3.308493637486814E1   1.338656208299738E1  -9.641454935150483  -1.580116038747121E2  -9.662611864019798   1.691728196583175E2  -3.212324303680121E1   7.042247102253403E1  
 1.530440097799511E11   -2.887119785525217E1  -5.104638881548708E1  -9.964640138445487   1.538831948950363E2  -1.001988601854164E1   1.210711746511280E2  -2.550014678316754E1   7.657915079253853  
 1.530562347188264E11   -2.938476716096182E1  -6.840660240929771E1  -9.972900616084331   1.088906324460819E2  -1.000691543621817E1   7.566809512021543E1  -2.245600923066500E1  -3.669048976643644E1  
 1.530684596577017E11   -2.298586977897715E1  -7.299688137374466E1  -9.737981203885001   6.065269188117766E1  -9.798876176151653   2.731817689448671E1  -2.129027205586737E1  -5.828627877746659E1  
 1.530806845965770E11   -1.899588294042783E1  -1.125874525497529E2  -9.940473577469891   1.228515461602272E1  -9.993125287048525  -2.118969617196877E1  -1.982560384846291E1  -7.723587878079651E1  
 1.530929095354523E11   -1.777451173540073E1  -1.575696581943505E2  -1.031982361969846E1  -3.338271168295290E1  -1.036726418414717E1  -6.689921710587764E1  -1.845653894730804E1  -9.351299459388785E1  
 1.531051344743276E11   -1.958309052926592E1   1.505187919139596E2  -1.005549684159226E1  -7.787919867107141E1  -1.010936175829642E1  -1.117889227243123E2  -1.739125794740601E1  -1.233245338846292E2  
 1.531173594132029E11   -2.681095928255200E1   8.989115052386156E1  -9.740902501770108  -1.265767657837593E2  -9.771849298346439  -1.601775688293089E2  -1.917526715626139E1  -1.535566211240657E2  
 1.531295843520783E11   -3.141388990953243E1  -8.811701535251194E1  -9.851457282484757  -1.756004890332591E2  -9.897713641088007   1.502955189748820E2  -2.268513509712275E1  -1.773516042296110E2  
 1.531418092909536E11   -2.321600325907517E1  -1.633907367133006E2  -1.012777177112399E1   1.384646960188333E2  -1.016569481232463E1   1.044028443023383E2  -3.031111349196553E1  -1.703248181324441E2  
 1.531540342298289E11   -2.332404659503762E1   1.412972294965267E2  -9.840919033118016   9.228125739341833E1  -9.872381449846843   5.829910039842837E1  -2.702051541464233E1  -1.591512116698166E2  
 1.531662591687042E11   -2.799694052810409E1   9.610727643771902E1  -9.661478166873533   4.371526208095460E1  -9.710265302324533   9.247890050297523  -2.959013358489558E1   1.575075408405375E2  
 1.531784841075795E11   -4.097872414167444E1   1.031386743804362E2  -9.893784801371041  -4.805512790367705  -9.934148975443691  -3.931226279555086E1  -3.395054162695457E1   4.622759808769989E1  
 1.531907090464548E11   -2.956278938406542E1   1.203191927142592E2  -1.001452287337053E1  -4.998932716000238E1  -1.005763272726532E1  -8.475278975018129E1  -2.534317920319398E1  -4.958076721644370E1  
 1.532029339853301E11   -2.646665738129201E1   4.476083329384027E1  -9.692869316166199  -9.692901351238234E1  -9.748786247856666  -1.318875450396775E2  -2.362221642871433E1  -9.736138192161080E1  
 1.532151589242054E11   -2.467441667681685E1  -2.972240604822797E1  -9.622694962926623  -1.463227914741824E2  -9.675108167277474   1.792798130631904E2  -2.545054122676628E1  -1.269256751146847E2  
 1.532273838630807E11   -2.336555415764917E1  -9.454724285644753E1  -9.898559755329206   1.660276065554868E2  -9.945578842258648   1.311772296187316E2  -3.143942305545931E1  -1.258980434827373E2  
 1.532396088019560E11   -2.543998045358801E1  -1.576335515279657E2  -9.901737807678693   1.207887967000547E2  -9.936702909884138   8.573922603127805E1  -2.751472401138959E1  -1.022542802883125E2  
 1.532518337408313E11   -3.690643917366601E1   1.635526262163804E2  -9.606547932431479   7.272621331940086E1  -9.647143972990145   3.795279517849981E1  -2.818253105387901E1  -1.258397389089743E2  
 1.532640586797066E11   -3.104631362907811E1  -9.671399082129254E1  -9.653660115398040   2.348754011752516E1  -9.699964665865387  -1.146877577844876E1  -3.359958826382082E1  -1.099688485556631E2  
 1.532762836185819E11   -2.435688614714710E1  -1.385084146626734E2  -1.003792407621224E1  -2.387806817346825E1  -1.007607693807820E1  -5.812437686304094E1  -2.771757848680830E1  -6.410130441158300E1  
 1.532885085574572E11   -2.459409339286778E1   1.670268702297744E2  -9.920835697144758  -6.877670217310755E1  -9.967774925100217  -1.032603823844071E2  -2.302829094842558E1  -9.555604933945632E1  
 1.533007334963325E11   -3.356528362600960E1   1.217187766268581E2  -9.638540376389409  -1.170657395287132E2  -9.678230838823263  -1.512631697368967E2  -2.532450076106283E1  -1.207201750942781E2  
 1.533129584352078E11   -3.164362751922570E1  -1.354353311291150E2  -9.726258540249658  -1.657903196649228E2  -9.774151740034748   1.602430223758242E2  -2.903902831289373E1  -9.374140052806300E1  
 1.533251833740831E11   -2.495318840933066E1   1.715584204226217E2  -9.867893976267776   1.477149388147465E2  -9.891434405708493   1.134366840866853E2  -2.220018757716876E1  -7.979024807975510E1  
 1.533374083129584E11   -2.573022267558666E1   1.012278316608326E2  -9.652241151996327   1.012352017969947E2  -9.690612094179205   6.679899764648177E1  -1.933787696180806E1  -1.080479329246757E2  
 1.533496332518337E11   -2.767461781862747E1   8.981267793441133E-1  -9.581128328639521   5.222904887799729E1  -9.606911452834162   1.797987663937782E1  -1.939534882984657E1  -1.309090289912225E2  
 1.533618581907091E11   -2.371558588102268E1  -9.448765908643784E1  -9.782289461846821   3.603512559218330  -9.810118906234598  -3.052141358379782E1  -2.064044057674573E1  -1.485208884183961E2  
 1.533740831295844E11   -2.126791721335939E1  -1.624120701794266E2  -9.954384359401248  -4.197205050682189E1  -9.976290369756175  -7.631859413562501E1  -2.204431138397510E1  -1.504565571712521E2  
 1.533863080684597E11   -2.262456274744916E1   1.409300013024102E2  -9.715122542452674  -8.889324713011173E1  -9.725216484962107  -1.229347176142633E2  -2.098708559901907E1  -1.670817725843851E2  
 1.533985330073350E11   -2.802379293735420E1   8.523173414920322E1  -9.622176385230942  -1.378312923298261E2  -9.673794008604743  -1.717310646415121E2  -2.320124173644923E1   1.602905844930608E2  
 1.534107579462103E11   -4.388385530645101E1  -7.295674334491297E1  -9.913417978817453   1.737812059135651E2  -9.953510581247901   1.402144928631528E2  -3.151317869800326E1   1.060802279601838E2  
 1.534229828850856E11   -2.997367823895962E1   1.615827804069648E2  -9.963491724222378   1.286573662308034E2  -1.002225450949961E1   9.531725383538317E1  -2.974906994408453E1  -7.525334390008652E1  
 1.534352078239609E11   -3.093269800920998E1   7.426656491842589E1  -9.690142088827644   8.101235047878009E1  -9.743034643352598   4.752628426746469E1  -2.582003798442328E1  -1.252828680166108E2  
 1.534474327628362E11   -2.894602179493979E1  -4.622686618798526E1  -9.758295464687972   3.158236320707002E1  -9.799570734313393  -1.556395308103735  -2.928801161675651E1  -1.460107607906637E2  
 1.534596577017115E11   -2.355429636644464E1  -1.286518919959341E2  -1.013228824600504E1  -1.518192138673149E1  -1.018564113032012E1  -4.812401679059673E1  -2.985698253052202E1  -8.618467670561900E1  
 1.534718826405868E11   -2.245606684830025E1   1.655980684656658E2  -9.987545427569160  -5.986333124078670E1  -1.003939264298479E1  -9.315255025773772E1  -2.159366521012665E1  -1.092516642932811E2  
 1.534841075794621E11   -2.546150649587065E1   1.020531913674097E2  -9.702211854377397  -1.076659067754058E2  -9.753073502327199  -1.405814848266494E2  -2.106209888772217E1  -1.464307745694540E2  
 1.534963325183374E11   -3.328862786817414E1   2.662238644117269E-1  -9.716237064122332  -1.570019781834873E2  -9.781269128457666   1.706097943832547E2  -2.506548359981961E1  -1.743052772299205E2  
 1.535085574572127E11   -2.843577863726253E1  -1.382497816741157E2  -9.953584994479861   1.561634011457032E2  -9.993864275496485   1.242412936825129E2  -3.171744980450894E1  -1.146524024366098E2  
 1.535207823960880E11   -2.740199730729417E1   1.444038667793745E2  -9.728242069020963   1.101408468016415E2  -9.784543141869799   7.803136010738575E1  -2.274581402624743E1  -1.194562283963523E2  
 1.535330073349633E11   -3.307525654978836E1   4.431635756736462E1  -9.576970357568525   6.108807002838902E1  -9.628420870514706   2.921101240808146E1  -2.192107248959643E1  -1.448988549517117E2  
 1.535452322738386E11   -2.651338241534931E1  -8.843244525246921E1  -9.766806595989387   1.268444550944875E1  -9.827184804143395  -1.914864195324390E1  -2.403558596434880E1  -1.521920886260067E2  
 1.535574572127139E11   -2.156409715670650E1  -1.574352240853447E2  -9.913956233405607  -3.294382378911685E1  -9.989176227017644  -6.466522096385350E1  -2.200936869356081E1  -1.343458911626133E2  
 1.535696821515892E11   -2.142319848387952E1   1.467646375656114E2  -9.690238820534443  -7.975519233255503E1  -9.755295352373279  -1.114156434140150E2  -1.832851794806951E1  -1.569401209352045E2  
 1.535819070904645E11   -2.542169939268574E1   9.112853735272495E1  -9.616483440527778  -1.278350320859128E2  -9.665581923927912  -1.597658948165617E2  -1.846349435057241E1   1.712846677765222E2  
 1.535941320293398E11   -3.971926723161637E1  -4.835491357994631E1  -9.742162620188957  -1.755898605385648E2  -9.807971151443464   1.524335226211259E2  -2.233796691585962E1   1.441454769165294E2  
 1.536063569682152E11   -2.722900406932984E1  -1.766982979819198E2  -9.602724772780736   1.379410142082547E2  -9.670884342844673   1.067862307689711E2  -2.720124120248323E1   1.729608093036295E2  
 1.536185819070905E11   -2.652379091079410E1   1.327088026558402E2  -9.406486657411108   8.959529959975771E1  -9.467596369531938   5.853673708315856E1  -2.296852311391275E1   1.715997212125364E2  
 1.536308068459658E11   -3.439358581115096E1   8.811251460861428E1  -9.443962280271931   4.046778442122880E1  -9.506040581870559   9.485814731282357  -2.308560219424503E1   1.464495147624211E2  
 1.536430317848411E11   -3.054756560700948E1  -1.451471045190764E2  -9.730682619899701  -7.613167483309462  -9.787229549060617  -3.825528774520975E1  -2.781854460004759E1   1.242774703797277E2  
 1.536552567237164E11   -2.343414833151668E1   1.633107396880647E2  -9.736262855945077  -5.329649966038853E1  -9.782194948850492  -8.384572664695995E1  -2.975028660125448E1  -1.677094817514290E2  
 1.536674816625917E11   -2.333571071024950E1   1.193268211191087E2  -9.565366272887665  -1.009100233920799E2  -9.636493511412782  -1.314011920976641E2  -2.295702644412485E1   1.654314523508864E2  
 1.536797066014670E11   -2.825379321559461E1   8.211019237763559E1  -9.634146370006272  -1.491718501210003E2  -9.702216295169887  -1.799521377507675E2  -2.311082440532334E1   1.220259899465104E2  
 1.536919315403423E11   -3.262365345530703E1   1.447234758347328E2  -9.733279845943711   1.646607065021059E2  -9.803944422963253   1.334138359375536E2  -3.028211582878360E1   5.945741319404174E1  
 1.537041564792176E11   -2.569324212737165E1   1.173803176540111E2  -9.559068300602368   1.173745279946791E2  -9.625026722622943   8.664000344950182E1  -3.073743176709576E1  -1.270205002322152E2  
 1.537163814180929E11   -2.616671810331621E1   7.351218805085361E1  -9.484620963645423   6.924539650996007E1  -9.553201546339803   3.772082513080717E1  -2.475818968033475E1   1.773693338477154E2  
 1.537286063569682E11   -3.354069647060922E1   1.429509436798585  -9.636751243964952   2.105914848725711E1  -9.701211581956398  -1.018939170048273E1  -2.552812581026520E1   1.315817024908754E2  
 1.537408312958435E11   -3.031314505691882E1  -1.719085637490178E2  -9.727965348399341  -2.528104276177389E1  -9.783974321117631  -5.645932811029387E1  -3.998307410636295E1   9.644239606576115E1  
 1.537530562347188E11   -2.573924712258991E1   1.266980172568888E2  -9.562023987757598  -7.269395498052813E1  -9.633407926241077  -1.039085509031183E2  -2.703554500737828E1  -1.579300903225148E2  
 1.537652811735941E11   -2.712116938652713E1   7.285425254439814E1  -9.591860673752114  -1.205584896068400E2  -9.646463048568702  -1.524072281668470E2  -2.287664091131582E1   1.573526952064609E2  
 1.537775061124694E11   -3.916790024020521E1  -2.019764554738263E1  -9.739162756619326  -1.677381022111817E2  -9.804169570296457   1.608010315004149E2  -2.404588568206639E1   1.103135265195188E2  
 1.537897310513447E11   -2.980762026806173E1   1.695658226243795E2  -9.576084340109794   1.460019233380591E2  -9.639540299780776   1.142499791599302E2  -3.564035870958697E1   7.792496091951833E1  
 1.538019559902200E11   -2.730077966621748E1   1.225976230657631E2  -9.432347714963166   9.760350134764994E1  -9.488966009182526   6.574554590421445E1  -2.944659915676695E1   1.704573741350065E2  
 1.538141809290953E11   -3.187339537753852E1   8.989347294458712E1  -9.527512043171708   4.871991381512970E1  -9.590670938249076   1.658103432653376E1  -2.486996976826910E1   1.279411013033257E2  
 1.538264058679706E11   -3.103998899905634E1   1.742909555866725E2  -9.805479123421090   2.006492080997362  -9.859096223499281  -3.051071850511436E1  -2.572393803055883E1   6.959480178931283E1  
 1.538386308068460E11   -2.278447983272085E1   1.337178571385522E2  -9.746838447676650  -4.411879133329416E1  -9.790644616013081  -7.682157483354303E1  -3.028439033873709E1  -3.948580634121004E1  
 1.538508557457213E11   -2.155772661234108E1   8.801162026588195E1  -9.670711031599524  -9.174278658948485E1  -9.726592008639889  -1.248978477971524E2  -2.572622341106491E1  -1.478446763825862E2  
 1.538630806845966E11   -2.428861531012971E1   3.490649301653181E1  -9.834944614084622  -1.397378155657200E2  -9.882082947387259  -1.726437625917913E2  -2.381106976902792E1   1.514601639024518E2  
 1.538753056234719E11   -3.635358840924188E1  -8.013065973836511E1  -9.847911066287757   1.746588581379360E2  -9.899993092605934   1.415929395772084E2  -2.871639787781599E1   1.031140371844425E2  
 1.538875305623472E11   -2.729234347201271E1   1.500434518935842E2  -9.585551001914283   1.277507861925122E2  -9.618558194624523   9.402015072344820E1  -3.331615614410975E1   1.795548749932226E2  
 1.538997555012225E11   -2.461605187546240E1   1.060648616118149E2  -9.562313613641587   7.897435710619472E1  -9.596489121195960   4.516568514598258E1  -2.406317701891940E1   1.552823292224075E2  
 1.539119804400978E11   -2.840026480804573E1   7.011804474559538E1  -9.770676259734000   3.112207898320390E1  -9.843147831653416  -3.280856210079008  -2.218590916423983E1   1.099458565555099E2  
 1.539242053789731E11   -2.954812624304335E1   1.321897010722935E2  -9.848534437691290  -1.471221820708774E1  -9.879186644015846  -4.912795979835589E1  -2.591335652690846E1   5.647352017208412E1  
 1.539364303178484E11   -2.253900525971726E1   1.090120169663196E2  -9.672946165323697  -6.213878130459385E1  -9.722892004327726  -9.647815497585751E1  -4.024684537958589E1  -1.247804434718926E2  
 1.539486552567237E11   -2.082670989975433E1   7.424103288513936E1  -9.736823135381252  -1.102992422752763E2  -9.781235455504580  -1.448968420297859E2  -2.416039515043961E1   1.546802683594767E2  
 1.539608801955990E11   -2.326060534401916E1   3.632864312647493E1  -9.883291821490971  -1.566748304238850E2  -9.925398052057782   1.688102661954814E2  -2.168695990996958E1   1.054716733427794E2  
 1.539731051344743E11   -3.077699936724074E1   4.021513750515857E1  -9.643374526962651   1.570572408608965E2  -9.675556660193303   1.227928249523395E2  -2.466698421018293E1   7.036681202281498E1  
 1.539853300733496E11   -2.865207823455026E1   7.508252721263867E1  -9.453157389228968   1.086140454499066E2  -9.492483144638452   7.387935435126838E1  -2.949515790106862E1   8.867323368983112E1  
 1.539975550122250E11   -2.527891698554100E1   6.431041345304570E1  -9.534421850729164   5.977669713216349E1  -9.582428456149048   2.460990782386457E1  -2.340770602266593E1   9.825672081899168E1  
 1.540097799511003E11   -2.653388783334551E1   4.639786939539189E1  -9.760471330224840   1.285589687515174E1  -9.818504521623888  -2.211216159791099E1  -2.011324816052559E1   6.148817527352244E1  
 1.540220048899756E11   -2.587665452684934E1   5.821637480822406E1  -9.615262552157118  -3.349244287912342E1  -9.658093766532618  -6.875572223043754E1  -2.098818959920056E1   1.688297538541291E1  
 1.540342298288509E11   -2.356939981710880E1   3.567668997796239E1  -9.509564207568044  -8.201213381617274E1  -9.549907814641159  -1.171045210226982E2  -2.572363656722231E1  -2.267877197866919E1  
 1.540464547677262E11   -2.456327744644514E1  -3.064869313930034  -9.671991480537415  -1.301984378173565E2  -9.725994241475110  -1.659002488692251E2  -3.703117977927316E1  -1.472305980544054E1  
 1.540586797066015E11   -3.281737664949363E1  -7.917695647744688E1  -9.801947441836269  -1.765206926547461E2  -9.875533980241151   1.476693022038755E2  -2.868466867132150E1   6.672806669068876E-1  
 1.540709046454768E11   -2.847689854241666E1   1.227136608577574E2  -9.630253735920832   1.362603485458344E2  -9.681576335568874   1.004555272635554E2  -2.723410538430648E1  -7.235061318070503E1  
 1.540831295843521E11   -2.347638074566700E1   7.331812936939413E1  -9.686496244357553   8.738535090913784E1  -9.734236846818527   5.160610781311556E1  -2.555048825634342E1  -1.580026223809345E2  
 1.540953545232274E11   -2.373700408276461E1   3.309539153103533E1  -9.944534922274052   3.981011742620606E1  -9.998792261181057   4.140602244282690  -2.276546014374652E1   1.293388582401010E2  
 1.541075794621027E11   -2.960230158711624E1   3.292918061322639E1  -9.965044304354658  -5.683487822861720  -1.002006300497774E1  -4.122402890338868E1  -2.307191092410202E1   6.844430507081813E1  
 1.541198044009780E11   -2.506789918390215E1   5.123075715472994E1  -9.756896315015315  -5.337138132844343E1  -9.817002986512200  -8.895738334874396E1  -2.933164344803106E1   1.873519111024065E1  
 1.541320293398533E11   -2.231200270112257E1   2.679383880614736E1  -9.896738783102322  -1.022781393241039E2  -9.941782892906671  -1.381815231558630E2  -3.468556359999485E1   1.365539503742893E2  
 1.541442542787286E11   -2.228847989156111E1  -1.634096067711185E1  -1.030863173169041E1  -1.486241983129892E2  -1.037485540475105E1   1.752071664994510E2  -2.372958251861739E1   8.814998661007653E1  
 1.541564792176039E11   -3.056967482106930E1  -7.875647980632034E1  -1.012680639438627E1   1.671973874400891E2  -1.019098840585229E1   1.317149082812401E2  -2.409510634601023E1   3.575053630890301E1  
 1.541687041564792E11   -3.333817120719166E1   9.311293232180326E1  -9.723257433861626   1.187931493190766E2  -9.796250645282100   8.356441182417896E1  -3.449161573171581E1   1.044721119904908E1  
 1.541809290953545E11   -2.670063492304393E1   5.012383921268568E1  -9.804745072873811   6.926065829904505E1  -9.839349178221509   3.466094584923143E1  -2.676367503578547E1   1.077407759110959E2  
 1.541931540342298E11   -2.797038953666163E1   1.825954841658973E1  -1.007247934370458E1   2.256161239152574E1  -1.013888934884704E1  -1.198374440550029E1  -1.976402204067028E1   6.806702671643518E1  
 1.542053789731051E11   -2.830517022606359E1   5.317508861964282E1  -9.869611098498115  -2.305494616990992E1  -9.923677917723651  -5.736567626709281E1  -1.890269259914332E1   2.448280732313215E1  
 1.542176039119804E11   -2.324740875467938E1   3.277019974484227E1  -9.676366099732951  -7.154373608883351E1  -9.729904479080902  -1.061132419186656E2  -2.161083213219501E1  -9.585814417133909  
 1.542298288508557E11   -2.245733598628332E1   1.799872616127506E-1  -9.813740634700258  -1.200758528485846E2  -9.872948667132327  -1.542402041745966E2  -2.742838281431909E1  -4.902975842565533  
 1.542420537897311E11   -2.663489914136849E1  -4.005903510870245E1  -9.904542385651983  -1.660719153999652E2  -9.961199591709177   1.598047083530260E2  -2.298659332169369E1   7.539171550023017  
 1.542542787286064E11   -3.596116164055442E1   4.777975478383446E1  -9.645460536825983   1.466133911409557E2  -9.709874849051996   1.123945663005538E2  -2.173072783948680E1  -2.718220557920897E1  
 1.542665036674817E11   -2.438856458300235E1   3.668258961622886E1  -9.639813483968407   9.776381909932091E1  -9.706083304897852   6.351692911469678E1  -2.442317591754161E1  -7.197521522925423E1  
 1.542787286063570E11   -2.172228327279909E1   1.727948947127806E-1  -9.911987047295245   5.030572024873560E1  -9.962258264883181   1.622648051413774E1  -3.534972624869548E1  -1.646780359389810E2  
 1.542909535452323E11   -2.462617769021895E1  -3.401353723202146E1  -9.843684437755782   5.080407161871015  -9.906656305910170  -2.896556407543360E1  -2.869968564600626E1   4.479385169747304E1  
 1.543031784841076E11   -2.881256304826881E1  -1.744788814389389E1  -9.502722416494239  -4.318868340592064E1  -9.572807414306277  -7.701859787077071E1  -2.692564403236030E1   9.555545642579925E-1  
 1.543154034229829E11   -2.573996940003376E1  -8.515579301202822  -9.500504984594173  -9.249059199720745E1  -9.558821802502671  -1.259560778499335E2  -3.101314376970459E1  -3.102255979756488E1  
 1.543276283618582E11   -2.345116138899605E1  -3.034321231950965E1  -9.763337411543548  -1.401591690468543E2  -9.803126881600878  -1.739070208854784E2  -3.387189380277208E1   5.359883583845755E1  
 1.543398533007335E11   -2.642968137903839E1  -6.244631270089136E1  -9.741527256541012   1.741426358202853E2  -9.806325502256108   1.403797420253990E2  -2.541818145292852E1   2.388835058086747E1  
 1.543520782396088E11   -3.010982645989523E1  -3.660637974070789E1  -9.520770464158703   1.253639408217088E2  -9.598196784687202   9.210630584084440E1  -2.517357718785515E1  -4.189641513121825  
 1.543643031784841E11   -2.534106797969366E1  -3.888898135839894E1  -9.695423630647738   7.599948376904891E1  -9.741444279657795   4.280288945667896E1  -2.864542126448533E1  -1.354425661322643E1  
 1.543765281173594E11   -2.258008290279108E1  -7.805189683655173E1  -1.008293948210282E1   2.965287802648869E1  -1.014491307507154E1  -3.694554173934863  -2.536115393638422E1   1.292687219554218E1  
 1.543887530562347E11   -2.452232014336903E1  -1.442756446271918E2  -9.862454366716746  -1.502366104691035E1  -9.906075464138814  -4.835510070724104E1  -2.208067073181013E1  -2.178690727003055E1  
 1.544009779951100E11   -2.920263071409621E1   1.311733708194630E2  -9.625526546628940  -6.386725498885571E1  -9.666171998655896  -9.697471817411007E1  -2.390138405863366E1  -6.184353924948314E1  
 1.544132029339853E11   -2.958322210859492E1   3.728191020442633E1  -9.761958619305091  -1.127285848168614E2  -9.802858520256903  -1.457181018348444E2  -3.276462372886800E1  -1.261054215644101E2  
 1.544254278728606E11   -3.204616468773231E1  -4.960322033255278E1  -1.005438501554318E1  -1.588786849292882E2  -1.012096285814647E1   1.683507277053215E2  -2.665038006739388E1   5.919480655695939E1  
 1.544376528117359E11   -3.427566956346234E1   1.164393233387614E2  -9.778211242602817   1.552629596546475E2  -9.844585067110987   1.223885457960632E2  -2.187771753966365E1   3.081442502351982  
 1.544498777506112E11   -2.613987950968532E1   4.190729021971836E1  -9.634577736564026   1.062980512468990E2  -9.690310504787524   7.352831443185532E1  -2.245923661487982E1  -3.633521061288263E1  
 1.544621026894865E11   -2.359189403619159E1  -9.404777655050397  -9.823887890084034   5.815525664434249E1  -9.885398055249047   2.594508941421933E1  -2.845516496165316E1  -5.779103498631940E1  
 1.544743276283619E11   -2.536978529516008E1  -6.683455248067718E1  -9.842951254073750   1.238454733412370E1  -9.905453236281657  -1.975078536252052E1  -2.701657602281433E1  -1.612625197203827E1  
 1.544865525672372E11   -3.707821991633026E1  -1.233515462754947E2  -9.516670146845174  -3.520917392471414E1  -9.557178102330905  -6.788038725499493E1  -2.451082917582538E1  -4.070047449830089E1  
 1.544987775061125E11   -3.440202180674105E1   1.661090391102449E1  -9.520201408668157  -8.449418389360349E1  -9.581069609535357  -1.171901426237280E2  -2.608805150256758E1  -7.112762819883423E1  
 1.545110024449878E11   -2.881605712459439E1  -4.205276599023392E1  -9.831690379558616  -1.326485597128053E2  -9.882434931832369  -1.653952237753163E2  -4.157804946063335E1  -1.028198972833048E2  
 1.545232273838631E11   -3.014641262320369E1  -1.376738598390315E2  -9.912215599444290  -1.777577494661798E2  -9.950870994390289   1.493886944634985E2  -2.648777586062876E1   7.801366839886356  
 1.545354523227384E11   -2.791578106080208E1   1.123346246716763E2  -9.663694432204419   1.344809245109689E2  -9.709241799118146   1.014736318878670E2  -2.319808000223266E1  -3.772902807845071E1  
 1.545476772616137E11   -2.450338455084192E1   5.350936852288113E1  -9.728717572449167   8.552026637074182E1  -9.763987702741281   5.288356780984596E1  -2.498371695432235E1  -8.540264241722922E1  
 1.545599022004890E11   -2.335883355961250E1   7.835391691786309  -1.003749542149520E1   3.847292638278113E1  -1.006833219834601E1   5.924809417870335  -3.595614480084022E1   1.757548614042877E2  
 1.545721271393643E11   -2.742451189374159E1  -1.649528097219807E1  -9.925465009582654  -6.726767639537829  -9.975652188449791  -3.930449461494901E1  -2.770910973774954E1   3.736559752523154E1  
 1.545843520782396E11   -2.622139130594713E1  -9.458315633119585E-1  -9.678070850680101  -5.479470827173963E1  -9.736589954114711  -8.790373535212076E1  -2.394843801262405E1  -1.058054858632011E-1  
 1.545965770171149E11   -2.306926801883517E1  -2.233782522187863E1  -9.823567722166814  -1.039036994588565E2  -9.869094838480965  -1.366977852396032E2  -2.452316766122602E1  -2.467546117864899E1  
 1.546088019559902E11   -2.274004285715088E1  -6.529224167274651E1  -1.010111974853478E1  -1.499129466707179E2  -1.015020087667055E1   1.771980239685798E2  -2.385936243161534E1  -1.577333536162544E1  
 1.546210268948655E11   -2.976770577907844E1  -1.330877186075225E2  -9.798045812100853   1.640272909426166E2  -9.828135137271962   1.312294853305000E2  -2.095300501445203E1  -3.476214650435129E1  
 1.546332518337408E11   -3.038379853199761E1   4.766376037955747E1  -9.653695141912097   1.148260675725893E2  -9.684230320041390   8.212166896942229E1  -2.049503108608657E1  -5.911514153458140E1  
 1.546454767726162E11   -2.314463543576108E1  -1.205587763795113E1  -9.920779816703011   6.641704021958930E1  -9.944707699094565   3.333018913788996E1  -2.241238005435288E1  -8.521723375633839E1  
 1.546577017114915E11   -2.179717329252178E1  -6.886526648844877E1  -1.014976799986792E1   2.151552985067773E1  -1.017404006664761E1  -1.165256479530544E1  -2.576147510375280E1  -7.849595841924297E1  
 1.546699266503668E11   -2.625009326536054E1  -1.335554385089984E2  -9.768012662190513  -2.532658817943779E1  -9.779830659553340  -5.814724508744212E1  -2.353248127049783E1  -8.989932317795592E1  
 1.546821515892421E11   -3.224942637168422E1   1.066096230716746E2  -9.696398715363813  -7.444472115807345E1  -9.732929040131532  -1.076553811421027E2  -2.418966344189408E1  -1.223780118255100E2  
 1.546943765281174E11   -2.558966056899235E1   8.233020168247743  -1.005063842953143E1  -1.222013654145217E2  -1.006235027112383E1  -1.553289747602431E2  -2.807963326361097E1  -1.784182940917460E2  
 1.547066014669927E11   -2.573999704526356E1  -5.156519782902916E1  -9.933650690846962  -1.660703068798006E2  -9.962669406458991   1.604565833021968E2  -3.768252957293676E1   6.751521153058435E1  
 1.547188264058680E11   -3.183418514867550E1  -6.539873750426102E1  -9.524785663542483   1.455255075308208E2  -9.554373336195191   1.121425256723630E2  -3.671566368132555E1   8.137804383814446  
 1.547310513447433E11   -3.062005284585769E1  -3.588650019414206E1  -9.524063313198329   9.593642686303947E1  -9.562110745342555   6.230032615095759E1  -3.564009996792488E1  -8.400855367557588E-1  
 1.547432762836186E11   -2.603546086478271E1  -5.660714323912048E1  -9.900591977993402   4.798648276403581E1  -9.918985608629987   1.414496249586587E1  -3.003455780454036E1   3.417637612891707E1  
 1.547555012224939E11   -2.700305873813624E1  -1.112384065478979E2  -9.864110514358348   3.567283411668246  -9.887742120901743  -3.044314749307567E1  -2.363747585620229E1  -9.845626807970657E-1  
 1.547677261613692E11   -4.177060331804307E1   1.636669832944628E2  -9.560346321034698  -4.510006280269829E1  -9.586122254877797  -7.894804714755613E1  -2.334684207458628E1  -3.292171939564379E1  
 1.547799511002445E11   -3.067838282101700E1  -2.267535224184074E1  -9.638461981330574  -9.430425792157045E1  -9.674656073261163  -1.281927259150561E2  -2.530321307488131E1  -4.934999891311846E1  
 1.547921760391198E11   -2.577159229626908E1  -8.638230994910511E1  -9.946173093788129  -1.408734618293853E2  -9.987067235461481  -1.750272866934216E2  -2.586620446161401E1  -2.890711291905171E1  
 1.548044009779951E11   -2.566968630907089E1  -1.693094485753536E2  -9.766935267228218   1.725455062051884E2  -9.792673848247180   1.389402337902011E2  -2.113852555327599E1  -4.558492649323085E1  
 1.548166259168704E11   -2.532602855600739E1   1.022559069255617E2  -9.691864936637849   1.237081598589109E2  -9.721151802279989   8.973619206315632E1  -2.029150532400766E1  -7.954641761308882E1  
 1.548288508557457E11   -2.350767999974640E1   2.928783878968471E1  -1.001636587505022E1   7.564589762919576E1  -1.005401501363010E1   4.193057754864259E1  -2.288349103542567E1  -1.196832283600743E2  
 1.548410757946210E11   -2.494192530980812E1  -3.632725049688673E1  -1.011525043718905E1   3.196912754170932E1  -1.015765233922186E1  -2.232693091518846  -3.491163363911927E1  -1.173109446886218E2  
 1.548533007334963E11   -3.784608528222211E1  -8.272096677316114E1  -9.626339876447965  -1.551140664548897E1  -9.661549592047038  -4.919812715139087E1  -2.888095465227604E1  -7.715008217064708E1  
 1.548655256723716E11   -3.041337773795009E1   3.544846824996576E1  -9.533649081244365  -6.506871909195725E1  -9.556349033603372  -9.872224503333625E1  -2.621610141331388E1  -9.705170362455675E1  
 1.548777506112470E11   -2.445337017028421E1  -5.722357067074928  -9.814692840082214  -1.132449769370520E2  -9.843457247543768  -1.475600127027139E2  -2.633425649282757E1  -1.424768273316868E2  
 1.548899755501223E11   -2.483658377592908E1  -5.286503096273947E1  -9.858221931153397  -1.583455326100316E2  -9.901611898189238   1.673381178162599E2  -3.220963688049100E1   1.634306510515577E2  
 1.549022004889976E11   -3.140712031248843E1  -7.041108600166133E1  -9.537642639133944   1.536301834231780E2  -9.562069572590376   1.193435052497015E2  -3.541069223807885E1   1.203503795597862E2  
 1.549144254278729E11   -3.393235171799723E1  -3.189754834407869E1  -9.547269180332656   1.042466077995745E2  -9.565556753298743   6.983390600496901E1  -3.338565097818738E1   7.655619729714044E1  
 1.549266503667482E11   -3.012786290104747E1  -2.563318959586237E1  -9.851826855747497   5.639403541326870E1  -9.884582416704051   2.176802524360692E1  -2.783767155357048E1   6.182417494078376E1  
 1.549388753056235E11   -3.419450387730468E1  -3.238723314490118E1  -9.871481840998685   1.073331851900986E1  -9.905109479885185  -2.343213034286620E1  -2.373223347137596E1   2.675106557742574E1  
 1.549511002444988E11   -2.602552881445991E1   1.779342778520185E1  -9.722594015313105  -3.740752222493478E1  -9.724303699524111  -7.197256545714203E1  -2.216079454078149E1  -3.816417095247652E-1  
 1.549633251833741E11   -2.040783450971883E1  -1.549164348744011E1  -9.905041083940928  -8.582647110747169E1  -9.950476287901083  -1.204992009747672E2  -2.203350259203819E1  -2.874076318521185E1  
 1.549755501222494E11   -1.841855319825143E1  -5.399506256123853E1  -1.026038589238730E1  -1.312025851970490E2  -1.029755954285773E1  -1.667651939177442E2  -2.386021780906234E1  -3.869534921858063E1  
 1.549877750611247E11   -2.020615625366904E1  -9.444740472244375E1  -9.934284254689318  -1.763722825906621E2  -9.960241097749456   1.485637172645437E2  -2.306742183122381E1  -5.655070355822701E1  
 1.550000000000000E11   -2.607208099033620E1  -1.118944478540871E2  -9.642479326454138   1.342266132703169E2  -9.666369342755088   9.933725003659335E1  -2.704051779352914E1  -7.922871553522822E1  
 1.550122249388753E11   -2.754448368423556E1  -8.053917094774762E1  -9.822943947513668   8.535118249915067E1  -9.825931859214149   4.956171030777592E1  -3.499067613472846E1  -6.082892770340957E1  
 1.550244498777506E11   -2.371902090536952E1  -9.908921806523446E1  -1.007078707552321E1   3.943041837634808E1  -1.009370152291801E1   3.946324687083418  -2.711676210533395E1  -1.728959766643224E-1  
 1.550366748166259E11   -2.639964663675835E1  -1.470629111800116E2  -9.794749972354211  -7.458285476013217  -9.818123802703392  -4.238077211148861E1  -2.353679311188310E1  -3.190391743044468E1  
 1.550488997555012E11   -4.345559334119420E1   7.910515356966306E1  -9.732501115113752  -5.686028077544634E1  -9.747285620062552  -9.180053371598758E1  -2.438846649051969E1  -5.052171960901192E1  
 1.550611246943765E11   -2.658966717818112E1  -3.695271770418083E1  -1.006320085798895E1  -1.046981395092391E2  -1.010466302247726E1  -1.402634792474092E2  -2.755338674875658E1  -5.460162490006201E1  
 1.550733496332518E11   -2.341202007082388E1  -9.065121083937983E1  -1.022081527432477E1  -1.494385814346536E2  -1.026322172229576E1   1.751640742957704E2  -2.462828356746292E1  -2.903753496950360E1  
 1.550855745721271E11   -2.831527819113793E1  -1.435780560001684E2  -9.842923096864952   1.632068413672348E2  -9.872892006929613   1.284180124305852E2  -2.283119880529709E1  -5.235032400680026E1  
 1.550977995110024E11   -3.686491172395697E1  -2.149152827690947  -9.857646856696693   1.135901627104088E2  -9.878281872038802   7.848718674944136E1  -2.362891027855853E1  -6.611713616684843E1  
 1.551100244498778E11   -2.394230362591001E1  -4.974982307749075E1  -1.032975189945055E1   6.606989847957030E1  -1.036565408827559E1   3.068816790421278E1  -2.705169883531541E1  -7.527774612530159E1  
 1.551222493887531E11   -2.141363509096031E1  -1.004951250887899E2  -1.040109532074871E1   2.228523670215205E1  -1.045130349055798E1  -1.237728548730645E1  -2.506791552197878E1  -4.693685899974840E1  
 1.551344743276284E11   -2.497478485588406E1  -1.470904694794409E2  -9.906280388993379  -2.455694323827431E1  -9.935435659552979  -5.952599590731601E1  -2.408772074229614E1  -7.389756539110807E1  
 1.551466992665037E11   -4.018340495939115E1  -1.460592886480735E2  -9.818478142682341  -7.396649558135921E1  -9.858529266219131  -1.090320190345782E2  -2.826620729669725E1  -8.391007459315189E1  
 1.551589242053790E11   -2.704356992189938E1  -7.803848486804721E1  -1.012546819846286E1  -1.213270939843621E2  -1.017724195390357E1  -1.565480596838253E2  -3.145996650017324E1  -3.228057624605527E1  
 1.551711491442543E11   -2.434156999430892E1  -1.297837384327830E2  -9.980179982740706  -1.664938852473554E2  -1.001214847999876E1   1.582487340016618E2  -2.406289666116345E1  -3.656511886160828E1  
 1.551833740831296E11   -2.967518204987740E1   1.730162207035030E2  -9.701721252069934   1.444568593098338E2  -9.753217494856711   1.101276329388148E2  -2.423278033566435E1  -5.536508049144414E1  
 1.551955990220049E11   -3.576757498100216E1  -2.784180755058223  -9.827530743753277   9.545282457494075E1  -9.871148488848929   6.073136199827695E1  -2.563567344858458E1  -4.776977821777010E1  
 1.552078239608802E11   -2.533522003602073E1  -7.515260381814211E1  -1.009694360395779E1   4.880493363666411E1  -1.014388512312939E1   1.502690398067671E1  -2.190198956235313E1  -3.497188746861494E1  
 1.552200488997555E11   -2.512427248415714E1  -1.329966380715721E2  -9.866919554257644   2.681557812928102  -9.891790320331205  -3.111135930564938E1  -1.915815693663184E1  -5.832664933517500E1  
 1.552322738386308E11   -3.474577109472153E1   1.589057748571762E2  -9.683337279364766  -4.619054969518192E1  -9.717481759543725  -7.986824330940449E1  -1.977278638601004E1  -7.740898901510730E1  
 1.552444987775061E11   -2.773242036434843E1  -3.206364315786757E1  -9.844394107064476  -9.498437866619982E1  -9.920147551235710  -1.285743621991833E2  -2.078682641901102E1  -8.631136447276865E1  
 1.552567237163814E11   -2.103885448908644E1  -8.747679432760064E1  -1.011285371199403E1  -1.409097010646966E2  -1.015687739562866E1  -1.739185401424249E2  -2.125141268398609E1  -8.329505295894109E1  
 1.552689486552567E11   -2.033609048402979E1  -1.372721860304498E2  -9.848920433458051   1.727174674269237E2  -9.889246018561833   1.398818210965307E2  -1.901079983955059E1  -9.712330119660892E1  
 1.552811735941320E11   -2.335138047747619E1   1.768686166836744E2  -9.729573957499206   1.240743183515473E2  -9.770275884303384   9.117816548754121E1  -2.002132842501788E1  -1.256611377293552E2  
 1.552933985330073E11   -3.479651724829119E1   1.277307476890516E2  -9.908954677475380   7.603086463062944E1  -9.962707267621086   4.324730567238073E1  -2.534241489275464E1  -1.490054444382753E2  
 1.553056234718826E11   -3.105746936254195E1  -1.062101610940815E2  -9.880196089394099   3.036358294561010E1  -9.928472404849678  -2.622197877956789  -2.918290687193947E1  -9.607224129348805E1  
 1.553178484107579E11   -2.913876877884990E1  -1.465796990708385E2  -9.628588075850402  -1.808789350536724E1  -9.695596835965349  -5.060216483683434E1  -2.507629085985080E1  -1.092835443940361E2  
 1.553300733496332E11   -3.496795180573297E1  -1.328140125223898E2  -9.708040474193362  -6.723106087201946E1  -9.762300707352681  -1.000026232013042E2  -2.745327576882917E1  -1.325599616036788E2  
 1.553422982885085E11   -2.569865551398366E1  -1.036825987420054E2  -1.004792626009864E1  -1.146090590802551E2  -1.008631380387167E1  -1.470216034303545E2  -4.185530686288317E1  -8.151109717876047E1  
 1.553545232273839E11   -2.056622911125772E1  -1.476598734820564E2  -9.968101493716716  -1.598442417442004E2  -1.000095231526521E1   1.676445641838018E2  -2.379524810571278E1  -5.530992997909684E1  
 1.553667481662592E11   -2.001320834008844E1   1.656931234745060E2  -9.756675755069670   1.523573158582846E2  -9.790403143302607   1.201263288945517E2  -2.043267613038931E1  -9.523379150338766E1  
 1.553789731051345E11   -2.235283141968085E1   1.178360033452600E2  -9.832923770159404   1.038407085915735E2  -9.864768445259264   7.127639337834428E1  -2.089096676253393E1  -1.342845516075196E2  
 1.553911980440098E11   -2.970645814000326E1   6.646271180895562E1  -9.969003468179526   5.749945788615271E1  -9.995184998822781   2.528057635801451E1  -2.588602191483982E1  -1.696147885957462E2  
 1.554034229828851E11   -3.904720590864542E1   1.166836793518168E2  -9.707488938797344   1.047148308254657E1  -9.728119835109384  -2.183250267507671E1  -3.205422999123544E1  -1.563916666435301E2  
 1.554156479217604E11   -3.376300102087447E1   8.197344992554915E1  -9.626655513323321  -3.877246542934702E1  -9.659704438009269  -7.099149710187777E1  -3.248058833735305E1  -1.724919948517488E2  
 1.554278728606357E11   -3.094906042779445E1   1.713417203932408  -9.915721432051296  -8.728254904913972E1  -9.959618044524479  -1.190829945228693E2  -3.355459677116152E1   1.017285127922126E2  
 1.554400977995110E11   -2.703618593683408E1  -8.687828125148099E1  -1.000980836234924E1  -1.324740841926690E2  -1.004433138986825E1  -1.642166932484215E2  -2.620681663203261E1   7.002156710165014  
 1.554523227383863E11   -2.670231800416214E1  -1.596260952768038E2  -9.695101420423477  -1.799718434684689E2  -9.746251875155263   1.484223017413457E2  -2.399808354917132E1  -4.652409201011212E1  
 1.554645476772616E11   -3.140972593420683E1   1.286702938581647E2  -9.646387365171679   1.311443616485068E2  -9.677065296580338   9.937935958430950E1  -2.571362874174206E1  -7.881440928112194E1  
 1.554767726161369E11   -3.416363651635653E1  -3.266359360731355E1  -9.910057543846227   8.313073275669250E1  -9.952495224467851   5.169156225466218E1  -3.245333795914426E1  -7.430719858777353E1  
 1.554889975550122E11   -2.636993146899719E1  -1.260015246922263E2  -9.892753814043145   3.738879765573566E1  -9.914670980142878   5.976532167314396  -2.488108797096709E1  -3.505626453403023E1  
 1.555012224938875E11   -2.525682944219423E1   1.669056522501093E2  -9.729706960695609  -1.093836200750399E1  -9.727572306982381  -4.238916373469423E1  -2.143758153703021E1  -6.579411198393048E1  
 1.555134474327628E11   -2.769413044504577E1   8.824620274120177E1  -9.851651321944814  -5.999355156865975E1  -9.865021101489456  -9.125850706409459E1  -2.223949512966394E1  -9.326094798711472E1  
 1.555256723716381E11   -2.732035751809089E1  -2.850414468291385E1  -1.020055564667978E1  -1.064646662447540E2  -1.023757507282151E1  -1.381225999389019E2  -2.750569660601106E1  -9.662303800385479E1  
 1.555378973105134E11   -2.335289946749025E1  -1.153952075666072E2  -1.007568907442978E1  -1.519137666040008E2  -1.010207702643347E1   1.762078363961614E2  -2.286893657237632E1  -6.650452511566732E1  
 1.555501222493887E11   -2.291707997734530E1  -1.767343358433837E2  -9.899764617468325   1.598261762473302E2  -9.928221690010147   1.280622899064659E2  -2.003640520755560E1  -9.433617107569472E1  
 1.555623471882640E11   -2.740268117602608E1   1.244159138194988E2  -1.008705746434721E1   1.118725136070668E2  -1.012387513324451E1   7.947189328805476E1  -2.137127163168146E1  -1.262119051177134E2  
 1.555745721271394E11   -3.582238645749063E1  -9.125630988616568E1  -1.024771125880312E1   6.654588314896171E1  -1.029696468723175E1   3.460590835284461E1  -3.000476738808935E1  -1.234536794751020E2  
 1.555867970660147E11   -2.381016865385136E1  -1.563161589736984E2  -9.956692528549269   2.013795355924763E1  -9.966384505967326  -1.217123825018699E1  -2.312085256970979E1  -8.292470061230243E1  
 1.555990220048900E11   -2.141311144438730E1   1.567436392736502E2  -9.827709532581926  -2.826299678773072E1  -9.836374186368930  -6.117500388877808E1  -2.015845055404119E1  -1.111494009905920E2  
 1.556112469437653E11   -2.293647427554504E1   1.132319921689210E2  -9.997341077101353  -7.612366324721808E1  -1.002416980934448E1  -1.092145217501409E2  -2.113976611409621E1  -1.436061673191484E2  
 1.556234718826406E11   -3.032267778327163E1   1.080756584576355E2  -1.003865778941203E1  -1.221960623617209E2  -1.007584172616024E1  -1.550240598987901E2  -2.886472956555431E1  -1.549241729619306E2  
 1.556356968215159E11   -2.477047553460165E1   1.367902430666912E2  -9.814031785590162  -1.697764588943577E2  -9.838636136355616   1.574427175198887E2  -2.586964932461861E1  -1.030085838341192E2  
 1.556479217603912E11   -2.065908069555789E1   1.035617818083682E2  -9.818167872975890   1.416386264156209E2  -9.847628724946423   1.082666917004487E2  -2.153205066445141E1  -1.213490974394339E2  
 1.556601466992665E11   -1.998340165608296E1   5.891829920827504E1  -1.004686886430022E1   9.483007120110324E1  -1.007948570640500E1   6.139666173187653E1  -2.141696501506081E1  -1.514678105541560E2  
 1.556723716381418E11   -2.339286686210715E1   1.574775483640863E1  -9.911997678486898   4.915094665450583E1  -9.930238812915283   1.595196989264338E1  -2.469955797297587E1  -1.594527723246105E2  
 1.556845965770171E11   -3.069587610635045E1  -4.049501428314808  -9.640135175564936   1.500331074926004  -9.664285860101494  -3.262674751323111E1  -2.357678145485145E1  -1.580164924085834E2  
 1.556968215158924E11   -3.281698403496291E1   4.093298690450814E1  -9.644907878809180  -4.769201034355284E1  -9.669428566804033  -8.172258224485310E1  -2.283649819037619E1  -1.777060061050380E2  
 1.557090464547677E11   -2.879349000331123E1   1.960173054275368E1  -9.848463820850698  -9.515898113863334E1  -9.888909587569719  -1.296507318176732E2  -2.346911893866974E1   1.511084222377197E2  
 1.557212713936430E11   -3.238117892497019E1  -6.659012732791647  -9.798100734907992  -1.417519513084433E2  -9.838220923127700  -1.759747822894061E2  -2.889923287901689E1   1.166239748798565E2  
 1.557334963325183E11   -3.309687105037385E1   1.909597133714563E1  -9.724171054595676   1.701137783784569E2  -9.732511892208716   1.356609819192754E2  -3.649809195973380E1   1.288396153720279E2  
 1.557457212713937E11   -2.824794345093795E1   3.254657076982547  -9.856790158239058   1.218484829745299E2  -9.889445014778495   8.695147632713649E1  -3.606604288813096E1   1.386324079703042E2  
 1.557579462102690E11   -2.641291112465878E1  -4.481539197021475E1  -1.006558266304272E1   7.553141747077309E1  -1.010125309460222E1   4.068895523259028E1  -3.392957093910219E1   7.552254618313906E1  
 1.557701711491443E11   -2.856878733843360E1  -1.085661327904307E2  -9.875938141070135   2.936341899790936E1  -9.905950637326148  -5.817280885690273  -2.965770154176666E1  -3.464747265794323E1  
 1.557823960880196E11   -3.178126998988650E1   1.659999223095620E2  -9.750003893328021  -1.872099527252590E1  -9.781106043571315  -5.399824911192803E1  -2.567635936937724E1  -1.032930686179290E2  
 1.557946210268949E11   -3.044447743660535E1   7.302463159505480E1  -9.871358189468099  -6.685314723042258E1  -9.904696239571599  -1.023874159646437E2  -2.393521610236899E1  -1.560739488243108E2  
 1.558068459657702E11   -3.155969688012388E1   8.740408917749132  -9.955194939459158  -1.129041942686861E2  -9.983317539629688  -1.486353812467370E2  -2.474078723585422E1   1.500911902623807E2  
 1.558190709046455E11   -3.487015372638899E1   1.742380099850010E1  -9.726995282696565  -1.605407069204715E2  -9.769916892494091   1.636267845219850E2  -2.921818495864154E1   1.141759108152562E2  
 1.558312958435208E11   -2.766452396253410E1   1.265329484597557E1  -9.749618401860234   1.499390479745009E2  -9.782986376488431   1.140753688385795E2  -3.061216369745744E1   1.105670755939845E2  
 1.558435207823961E11   -2.292362366559931E1  -2.964970219751456E1  -1.013739244679790E1   1.021631275685825E2  -1.015870368959815E1   6.628985500748448E1  -2.651650843783544E1   9.163998276395132E1  
 1.558557457212714E11   -2.166025444532384E1  -8.469946966392361E1  -1.022555301682460E1   5.681080202342761E1  -1.027266775003026E1   2.120730377264303E1  -2.292019820708491E1   4.072859517582785E1  
 1.558679706601467E11   -2.417461935295817E1  -1.431773906167175E2  -1.001983561844665E1   9.440290882869334  -1.004748916280122E1  -2.592302542761360E1  -2.311731385248159E1  -1.662218842968234E1  
 1.558801955990220E11   -3.173247399236227E1   1.292550716665250E2  -1.009043202463061E1  -3.898107147928742E1  -1.011184998303686E1  -7.463434184579296E1  -2.663505128291835E1  -7.131968530710064E1  
 1.558924205378973E11   -2.715447604957774E1  -2.763744688817939E1  -1.039509734951861E1  -8.483192055732953E1  -1.043279544360152E1  -1.205285752136602E2  -4.198602088396048E1   1.693892213385583E2  
 1.559046454767726E11   -2.268114714148058E1  -9.688639972912814E1  -1.017639536442202E1  -1.306041331209353E2  -1.022297416014518E1  -1.658627746328052E2  -2.681724955528338E1   2.898021911064166  
 1.559168704156479E11   -2.232150699946280E1  -1.448922429675627E2  -9.942733082171143  -1.785234625757105E2  -9.988367060714635   1.460505263753661E2  -2.402320031370279E1  -6.026001201776150E1  
 1.559290953545232E11   -2.494878362644550E1   1.759954942192391E2  -1.000165041160662E1   1.327460378413703E2  -1.003361479108578E1   9.724258392945551E1  -2.557390175326362E1  -1.275472970934011E2  
 1.559413202933985E11   -2.919156454805730E1  -1.662807697490454E2  -1.016966028684710E1   8.639597298725734E1  -1.020863062810341E1   5.099785305474293E1  -2.779133288815955E1   1.264443646386394E2  
 1.559535452322738E11   -2.215499164837303E1  -1.775510979518992E2  -1.000096215522286E1   3.952057504165987E1  -1.004497832722837E1   4.358735467526694  -2.454614020799979E1   2.884769297241287E1  
 1.559657701711491E11   -1.940148478494767E1   1.411673501677502E2  -9.909651784443105  -8.860166756971108  -9.947850235061667  -4.362813004140608E1  -2.327569162157138E1  -3.223338169551898E1  
 1.559779951100244E11   -1.908362741107404E1   9.396770011469489E1  -1.007473062571061E1  -5.655309840592145E1  -1.011762705430170E1  -9.111561321604064E1  -2.676994887699619E1  -8.331983732973639E1  
 1.559902200488998E11   -2.268006733848299E1   4.694041732099068E1  -9.930712702949759  -1.024347768902315E2  -9.971966372509396  -1.367323485284905E2  -3.663133954903336E1  -5.385820236753958E1  
 1.560024449877751E11   -3.112838777951851E1   3.194867966320834E1  -9.652562435430491  -1.509117834769709E2  -9.692812320814779   1.750745290895991E2  -2.947356237746978E1  -4.529596989593266E1  
 1.560146699266504E11   -2.897477644587052E1   7.565003617093608E1  -9.673326733407334   1.599460877415164E2  -9.694061436070948   1.254733454835091E2  -2.950319565215424E1  -7.556439195885382E1  
 1.560268948655257E11   -2.377334558140909E1   3.885192110089098E1  -9.957455310822912   1.118454504426525E2  -1.000334568642690E1   7.774357093926761E1  -4.301419141977832E1  -8.732227969435051E1  
 1.560391198044010E11   -2.458202878364357E1  -2.020816500189741E1  -1.001067196758311E1   6.606937474951479E1  -1.004168665352783E1   3.217138342713026E1  -2.715728056016834E1  -6.691011465759357E-1  
 1.560513447432763E11   -3.084154633985446E1  -8.759863202325525E1  -9.837467422702886   1.817758536291178E1  -9.887213505672442  -1.519995025872166E1  -2.284306012520092E1  -4.468621524140714E1  
 1.560635696821516E11   -3.411938704008317E1   1.152047584512071E2  -9.923605445486738  -3.055080366486352E1  -9.959328773556569  -6.350885577532208E1  -2.354418094711576E1  -8.392930066945571E1  
 1.560757946210269E11   -2.678219527304658E1   2.340999783122834E1  -1.009485392484890E1  -7.675927854684818E1  -1.012450285048756E1  -1.100943887930416E2  -3.055567282585500E1  -1.035197152615883E2  
 1.560880195599022E11   -2.612062407086202E1  -4.512025636543928E1  -9.891692142253126  -1.236578824480730E2  -9.924646626517447  -1.566026694596031E2  -2.708597368371809E1  -5.266207317940391E1  
 1.561002444987775E11   -2.839809719743946E1  -1.087036391107514E2  -9.779195512517743  -1.723214242578507E2  -9.824013767362434   1.549042097421510E2  -2.305443664298177E1  -8.507991155216958E1  
 1.561124694376528E11   -3.409477763929033E1   1.723973478912572E2  -9.901691335086783   1.392570241811915E2  -9.945118053620934   1.064890036016890E2  -2.366169018920466E1  -1.304008558471655E2  
 1.561246943765281E11   -4.126094863442330E1  -1.107369679730267E1  -1.007802449925603E1   9.285283000490956E1  -1.010773811617050E1   6.002532444234787E1  -3.018972086699703E1   1.566267938656483E2  
 1.561369193154034E11   -3.253952909567971E1  -1.296878571245206E2  -9.955026766752400   4.599605355933082E1  -9.963554396739834   1.337191258700909E1  -2.941941725636673E1   1.791843692069991  
 1.561491442542787E11   -2.916764699610430E1   1.589259190963327E2  -9.958280033433237  -3.013599107211397  -9.994018213202132  -3.514968658843826E1  -2.451959271749793E1  -6.335954157178376E1  
 1.561613691931540E11   -2.737352636657254E1   8.665289558015789E1  -1.019339443671015E1  -5.061299743214746E1  -1.023831553885918E1  -8.237711550826388E1  -2.528146280171570E1  -1.182857145978633E2  
 1.561735941320293E11   -2.878462443865942E1   6.035121431785988  -1.026494910958898E1  -9.622999769090103E1  -1.029740348705282E1  -1.275764358681726E2  -3.630607378970157E1   1.574757577970902E2  
 1.561858190709046E11   -3.314530705320949E1  -8.311434907591232E1  -9.989268610671381  -1.437088782852129E2  -1.003106508962429E1  -1.752433062184067E2  -2.906527617585554E1  -2.326198176713335E1  
 1.561980440097799E11   -3.433569135336335E1   1.734982505220221E2  -1.001671333913876E1   1.675357562886505E2  -1.004064932070811E1   1.362599735305896E2  -2.531060139148824E1  -7.901440904000661E1  
 1.562102689486553E11   -3.443622116856326E1   5.993505976026167E1  -1.026110488205319E1   1.202179982342685E2  -1.028684194714528E1   8.923944262590327E1  -2.823732039540759E1  -1.420948058512394E2  
 1.562224938875306E11   -3.204856462117694E1  -8.224371936538138E1  -1.013312788671467E1   7.472482980675844E1  -1.017178936384842E1   4.334380422250146E1  -3.302938618867790E1   6.560872953441556E1  
 1.562347188264059E11   -2.672474985281889E1  -1.691225939462067E2  -9.986917435905403   2.633777308374621E1  -1.002300340301664E1  -5.147005546141972  -2.455375984084387E1  -1.499253956954892E1  
 1.562469437652812E11   -2.361576940445582E1   1.280702410002237E2  -1.012778179654225E1  -2.183946851408734E1  -1.017098261418442E1  -5.321341358300266E1  -2.209173402617321E1  -6.237113429802223E1  
 1.562591687041565E11   -2.384537867199729E1   6.141513407024456E1  -1.038684794410259E1  -6.764874463737044E1  -1.042042613960794E1  -9.915935730228107E1  -2.438197866356967E1  -1.029543472457093E2  
 1.562713936430318E11   -3.031831434237015E1  -1.388211736451236E1  -1.009532909007480E1  -1.129311115924236E2  -1.014877759153089E1  -1.449663978759617E2  -3.129245318363248E1  -8.578346321665313E1  
 1.562836185819071E11   -3.369962661056513E1  -1.643935786526661E2  -9.869920250136762  -1.618001807423617E2  -9.891347387689777   1.665759140244371E2  -2.571468561334928E1  -6.975247319870177E1  
 1.562958435207824E11   -2.566534417812459E1   1.156332231384968E2  -9.976427297993128   1.491311457876662E2  -1.001623681901764E1   1.176519462275268E2  -2.333278027525925E1  -9.654753454743272E1  
 1.563080684596577E11   -2.350169317309840E1   4.959812308428476E1  -1.020471972590726E1   1.027426235595870E2  -1.026409731308572E1   7.161872953067982E1  -2.629556852235467E1  -1.278895839906913E2  
 1.563202933985330E11   -2.744274266694031E1  -1.711780812685422E1  -9.935066674745173   5.691921285213687E1  -9.990262637597379   2.484629970474374E1  -3.024346549241801E1  -9.163942464549689E1  
 1.563325183374083E11   -3.491449446943704E1  -1.212077524324764E2  -9.819905007703708   8.230740184639801  -9.861758409848914  -2.356938497777114E1  -2.420214951739892E1  -9.997470024040463E1  
 1.563447432762836E11   -2.919300814292901E1   1.141740171802414E2  -1.003026568911599E1  -4.001360046844660E1  -1.007217731319726E1  -7.178190669165275E1  -2.322217161897108E1  -1.379733782359302E2  
 1.563569682151589E11   -2.870264216905254E1   3.886010668954241E1  -1.002251534680367E1  -8.535096966519927E1  -1.007551781228845E1  -1.172940720828072E2  -2.927140294132111E1   1.747743823559591E2  
 1.563691931540342E11   -4.071708983508109E1  -3.988600139915152E1  -9.757198465946638  -1.333655120654700E2  -9.789097518005079  -1.652843973627128E2  -3.470702503848905E1  -6.300295257727646E1  
 1.563814180929096E11   -3.100226807536281E1   1.416200482046021E2  -9.810853829663369   1.775156451406570E2  -9.871323399613219   1.455022689415455E2  -2.476680505754385E1  -9.936026873748789E1  
 1.563936430317849E11   -2.448272650342888E1   8.312031201114982E1  -1.011809380642684E1   1.306000567778840E2  -1.016247422351920E1   9.880842290128618E1  -2.286039624053560E1  -1.463779615683315E2  
 1.564058679706602E11   -2.521447588943081E1   3.461243648779337E1  -9.925584396312468   8.534108575914931E1  -9.968543279736926   5.330096220288045E1  -2.655263061739671E1   1.722927814904674E2  
 1.564180929095355E11   -2.959905635688875E1   1.729460705529328E1  -9.655206836249750   3.665475540428074E1  -9.679034927078916   4.978281947437512  -3.449630208869154E1   1.701480308621943E2  
 1.564303178484108E11   -3.068111201261357E1   3.248566861970966E1  -9.724394456288357  -1.256810157534249E1  -9.755158930838238  -4.407292117621634E1  -3.062463222922865E1  -1.547748365849436E2  
 1.564425427872861E11   -2.683320129746667E1   6.746278195401505  -9.999729120000774  -5.946877978030702E1  -1.002999092010516E1  -9.106939624841770E1  -2.584147196968199E1   1.603495047732030E2  
 1.564547677261614E11   -2.931498042248378E1  -6.055861033631531E1  -9.814568424809615  -1.054190209517552E2  -9.852452354735943  -1.375562640896725E2  -2.596466661513007E1   9.439596994099928E1  
 1.564669926650367E11   -3.293923105383724E1  -1.703518600626717E2  -9.717898541301585  -1.539055522169565E2  -9.750371041707052   1.736706581729241E2  -2.817368723825599E1   2.230069102774784E1  
 1.564792176039120E11   -2.744562090646014E1   1.036607205387883E2  -9.885216021154911   1.578528807858777E2  -9.949968372197313   1.248230170515763E2  -3.082847349022394E1  -6.424217427645587E1  
 1.564914425427873E11   -2.756173403357194E1   3.983901931214786E1  -1.008940541844804E1   1.122818004749999E2  -1.010922046527874E1   7.893961959594097E1  -3.278438920571301E1   1.650942166316256E2  
 1.565036674816626E11   -4.498697016704477E1   3.156173324257762E1  -9.797443367840240   6.441951110584274E1  -9.827217062158562   3.208053218445463E1  -2.833593875199506E1   6.217223388459073E1  
 1.565158924205379E11   -2.740767016842287E1   1.130893931052370E2  -9.784118118575389   1.576987491289107E1  -9.817543120649404  -1.721607570405901E1  -2.586704018393622E1  -2.599995465977847  
 1.565281173594132E11   -2.181906844523281E1   7.422472736913689E1  -1.012272372076218E1  -3.181760812255362E1  -1.013120217289192E1  -6.500641892555598E1  -2.771251751080314E1  -6.550414455366011E1  
 1.565403422982885E11   -2.171193266983361E1   2.946840525071625E1  -1.011349339004861E1  -7.677337237933531E1  -1.014708741569250E1  -1.100364049789646E2  -5.072773869671299E1  -1.612020811821211E2  
 1.565525672371638E11   -2.748962553329453E1   1.392889129099742E1  -9.772814387456080  -1.245489899296868E2  -9.813411273045221  -1.577393631514431E2  -2.928303720848914E1   1.164687516563389E1  
 1.565647921760391E11   -2.630030167877884E1   5.991319212458292E1  -9.813312855400143  -1.740562379397009E2  -9.862606100118747   1.525746594751516E2  -2.502324554755198E1  -2.924412552952471E1  
 1.565770171149144E11   -1.950597549911689E1   4.491551122370774E1  -1.024973025991678E1   1.382674202898978E2  -1.029324910571568E1   1.053679165188113E2  -2.513674788937936E1  -7.092694411020915E1  
 1.565892420537897E11   -1.764246419693594E1   7.029384356697652  -1.025992591772651E1   9.406364867171789E1  -1.031183188137342E1   6.106761061428285E1  -2.933829721916458E1  -7.398863223008482E1  
 1.566014669926650E11   -1.896795584958190E1  -2.353451949292374E1  -9.891999709182290   4.666137607649601E1  -9.931240391753567   1.321646341424942E1  -2.558848289179845E1  -8.460970210240593E1  
 1.566136919315403E11   -2.179358341561856E1  -4.109313100773210E1  -9.931651334189658  -2.384778130012541  -9.950679593390081  -3.570576547868875E1  -2.464483792733835E1  -1.262661124589695E2  
 1.566259168704157E11   -2.259995817165054E1  -3.815872617307173E1  -1.017509422544342E1  -4.917696154295145E1  -1.020845010743091E1  -8.233949044602949E1  -2.553670341972222E1   1.700953625294712E2  
 1.566381418092910E11   -2.129014034965292E1  -6.602960706056446E1  -9.956433152663292  -9.530105657184353E1  -9.986598951997427  -1.282673661867012E2  -2.650621331678311E1   7.980481439284914E1  
 1.566503667481663E11   -2.358444813880537E1  -1.085425475841255E2  -9.804861834827952  -1.440852947174390E2  -9.833124400509691  -1.770152811890266E2  -2.524538635437069E1   4.387044608624818  
 1.566625916870416E11   -2.904984343996002E1  -1.767881468069180E2  -1.001941875085340E1   1.673990454810528E2  -1.006275000593401E1   1.347817575640674E2  -2.601187125562376E1  -5.361373967222004E1  
 1.566748166259169E11   -3.043831482886614E1   5.663721309991555E1  -1.010710923973508E1   1.228699132270985E2  -1.014078158545351E1   8.954934987324390E1  -3.556007584788323E1  -8.393572108640940E1  
 1.566870415647922E11   -3.062215030541030E1  -1.596329871248213E1  -9.741713055374676   7.533764916897154E1  -9.769452437718748   4.216283450313507E1  -3.253047533136283E1  -2.200116938618588E1  
 1.566992665036675E11   -3.921420131878050E1  -6.223355434390987E1  -9.679155975271685   2.603310326963294E1  -9.722892879143352  -7.479738908636457  -2.732123234138754E1  -3.980951930014138E1  
 1.567114914425428E11   -3.200176442114598E1   8.329769264601885E1  -9.970164998367116  -2.229122316388062E1  -1.000283738977984E1  -5.562958923605761E1  -2.728864151279126E1  -7.960052856672411E1  
 1.567237163814181E11   -2.594627708099872E1   3.054673018877034E1  -1.002361987078937E1  -6.723802745221094E1  -1.005955540345848E1  -1.009515688873524E2  -3.876921792735055E1  -9.434025790436884E1  
 1.567359413202934E11   -2.788896501299485E1   9.645522778833733  -9.705834942043383  -1.149401522548079E2  -9.746834347208887  -1.490306277780462E2  -3.216031219416126E1  -1.711035853776780E1  
 1.567481662591687E11   -2.727049782439153E1   3.112552751881486E1  -9.751928906262677  -1.645556858640053E2  -9.786966674148367   1.618554137128429E2  -2.721442612973648E1  -3.504930933721053E1  
 1.567603911980440E11   -2.153957721229371E1   2.250111027462906E1  -1.007970771607265E1   1.483749082364907E2  -1.011126367012682E1   1.148507338102699E2  -2.716573572370696E1  -6.086868061681114E1  
 1.567726161369193E11   -1.924220253233175E1  -1.371972480184864E1  -9.993878739892981   1.031521536743744E2  -1.003265473434505E1   6.935168278678673E1  -2.740497535933973E1  -3.849630226078030E1  
 1.567848410757946E11   -2.091700540417185E1  -4.601211216377328E1  -9.744696500939176   5.425253716504285E1  -9.779651023312479   2.120995667749928E1  -2.249874048478005E1  -5.370344484791718E1  
 1.567970660146699E11   -2.618372170509990E1  -6.391629257852780E1  -9.900193888422612   5.172336389448386  -9.922590006318156  -2.786727926555384E1  -2.067163695869564E1  -8.391893684982469E1  
 1.568092909535452E11   -2.739792910306182E1  -1.074424436047285E1  -1.027744065644781E1  -4.107838731692441E1  -1.030626644173886E1  -7.468293632605064E1  -2.188475647968238E1  -1.205640152947109E2  
 1.568215158924205E11   -2.214015071187286E1  -3.217684254102631E1  -1.002669990549852E1  -8.583297631438352E1  -1.004163109494563E1  -1.192579115243834E2  -2.865905964460051E1  -1.303480811108706E2  
 1.568337408312958E11   -2.268967436875138E1  -5.389043630311640E1  -9.735696753110021  -1.350323412149412E2  -9.767825792324448  -1.683533156689569E2  -2.633020058007139E1  -1.029282242838005E2  
 1.568459657701711E11   -2.502084821056698E1  -6.245324094444668E1  -9.926502401908842   1.755817866713837E2  -9.975178992722192   1.425374105536268E2  -2.319385664834127E1  -1.288576705014947E2  
 1.568581907090465E11   -2.382593231496773E1  -4.890564863438735E1  -1.027832071479565E1   1.300173762538663E2  -1.030883609513764E1   9.696146036254577E1  -2.347788366014443E1  -1.788577854959043E2  
 1.568704156479218E11   -2.162460845574259E1  -7.849896450041030E1  -9.948703283992106   8.445365776418988E1  -9.983112517532288   5.132905616960557E1  -2.937732820796056E1   1.090597539548869E2  
 1.568826405867971E11   -2.478104273147463E1  -1.097446854621117E2  -9.770028115313430   3.579387493711193E1  -9.817969914162639   2.221677562791564  -3.243486432407876E1  -1.661118974944231E1  
 1.568948655256724E11   -3.360374674144149E1  -1.144789662307345E2  -9.990130272110886  -1.281196905609203E1  -1.004089601777083E1  -4.608016851510918E1  -2.829808261796166E1  -1.027407172957335E2  
 1.569070904645477E11   -2.817675758811054E1  -6.119058967319160E1  -1.000484664762482E1  -5.794729192446864E1  -1.003957444588551E1  -9.116226675762549E1  -3.081605018645250E1   1.785683380805620E2  
 1.569193154034230E11   -2.677476728142607E1  -1.058353226014599E2  -9.691207666981770  -1.059543738947163E2  -9.729730894046435  -1.392984190664244E2  -3.555983112021217E1   7.766279431446260E1  
 1.569315403422983E11   -3.298745413910022E1  -1.702294145262021E2  -9.743324025179467  -1.555387067909069E2  -9.785805270370256   1.713834428082920E2  -3.109877502170276E1  -9.120791220061351  
 1.569437652811736E11   -2.999958777998327E1   4.818238967545389E1  -1.010322408108145E1   1.571395142210612E2  -1.013618570302372E1   1.240951150953787E2  -3.094270893136564E1  -6.973398636941020E1  
 1.569559902200489E11   -2.351318056803915E1  -2.138341584824266E1  -9.987315619065418   1.122937067359657E2  -1.002681815505793E1   7.912647229837209E1  -3.672808134110046E1  -2.748388360452600E1  
 1.569682151589242E11   -2.337823526703846E1  -6.614877113754338E1  -9.670647478731013   6.413367056497239E1  -9.709142612721125   3.143318419188304E1  -2.685919653742193E1  -4.878961817752119E1  
 1.569804400977995E11   -2.582335946731993E1  -1.013838085820475E2  -9.743579984737973   1.446577352909924E1  -9.772788005972531  -1.838423743228387E1  -2.408248999501780E1  -8.832502015434184E1  
 1.569926650366748E11   -3.429775551955039E1  -1.143962748500365E2  -1.001558405662581E1  -3.249479840463479E1  -1.005560160089546E1  -6.457697764899659E1  -2.433874757873420E1  -1.363118644737879E2  
 1.570048899755501E11   -3.337527119310828E1  -8.231857494923355E1  -9.789656737478914  -7.829300173037815E1  -9.839874323365345  -1.106458891541449E2  -2.953121198856909E1  -1.768147613094098E2  
 1.570171149144254E11   -4.508595616120451E1  -1.216544278942662E2  -9.604490216963281  -1.273286970407480E2  -9.628848209253359  -1.597088915643962E2  -3.611480930505612E1   1.641688612340200E2  
 1.570293398533007E11   -3.281757391115212E1   2.772343898292013E1  -9.807698455130419  -1.768477769774215E2  -9.836883350852771   1.513054022484087E2  -3.745810176187519E1   1.749418555016572E2  
 1.570415647921760E11   -2.447929643152066E1  -2.636048693686306  -1.014629037491564E1   1.370661084864292E2  -1.016287797170883E1   1.049392167176563E2  -3.197659209148797E1   1.184040788269635E2  
 1.570537897310513E11   -2.207527213602183E1  -4.753245305788322E1  -9.880598133221705   9.104661837121518E1  -9.881424406092568   5.930569978445040E1  -2.942939858169261E1   3.344603918116109E1  
 1.570660146699266E11   -2.439240733622989E1  -7.736600917070510E1  -9.743377245348043   4.161699139222242E1  -9.773376391500516   9.797880666564014  -2.980767679882618E1  -3.700831708887149E1  
 1.570782396088019E11   -2.905152954552937E1  -7.548669845510663E1  -1.006503268587666E1  -7.339598255916660  -1.006920210309019E1  -3.854464519504881E1  -3.138216552350175E1  -1.192362269054551E2  
 1.570904645476773E11   -2.431995929689368E1  -5.279624253844699E1  -1.031236057183948E1  -5.209218077571619E1  -1.032546926924480E1  -8.397392049060858E1  -2.908451329063572E1   1.221107231263600E2  
 1.571026894865526E11   -2.146868760837181E1  -9.272584335166592E1  -1.001887202881127E1  -9.862223969609605E1  -1.001576376108899E1  -1.306942059056489E2  -2.535338087318326E1   4.506957637582881E1  
 1.571149144254279E11   -2.374386185772523E1  -1.400419648857789E2  -9.976175882135740  -1.478313274204602E2  -9.997653355773000  -1.793456495421769E2  -2.401272123790863E1  -3.526072459932211  
 1.571271393643032E11   -3.150671549559800E1   1.350132979021888E2  -1.033420973109052E1   1.642821972245436E2  -1.034202527685095E1   1.332316052596455E2  -2.670140613616209E1  -4.947616918230839E1  
 1.571393643031785E11   -2.658757511437606E1  -8.577746649993602  -1.027514143317575E1   1.198767191590103E2  -1.030818176341957E1   8.871059240621729E1  -3.050784932913758E1  -1.632050743588309E1  
 1.571515892420538E11   -2.406547815056502E1  -6.671187953031358E1  -9.934480494255126   7.203757283311217E1  -9.973893190043430   4.078450471178195E1  -2.497447296177004E1  -3.399578419763977E1  
 1.571638141809291E11   -2.678013210102046E1  -1.067396611257482E2  -1.001651277096150E1   2.243168560000163E1  -1.004122732576642E1  -8.705984560259902  -2.393707908015493E1  -7.230321470829102E1  
 1.571760391198044E11   -3.996742662746031E1  -5.058069387583692E1  -1.041373724343634E1  -2.364236580415686E1  -1.045240785766157E1  -5.479534640445292E1  -2.736929994894106E1  -1.267654150516618E2  
 1.571882640586797E11   -2.527902116571693E1  -5.116752194999571E1  -1.011322842476826E1  -6.852733423451730E1  -1.015353550506884E1  -9.959904189278983E1  -4.090725837523397E1   5.972441707162947E1  
 1.572004889975550E11   -2.455593559948999E1  -8.767761299769902E1  -9.797627239542772  -1.174752684835113E2  -9.820365719485368  -1.486371458535398E2  -2.888128876500460E1  -2.724476756293335E1  
 1.572127139364303E11   -2.834273468608016E1  -1.074809670520225E2  -9.953624958665060  -1.667078033776961E2  -9.977721241273317   1.617549242483208E2  -2.714706296496271E1  -7.220499689407920E1  
 1.572249388753056E11   -3.039678412388688E1  -5.488318396879613E1  -1.034907365012304E1   1.467710263219918E2  -1.037663261121679E1   1.155895900372208E2  -3.072988000805510E1  -1.439353443418138E2  
 1.572371638141809E11   -2.247711990720116E1  -7.708505502939519E1  -1.007646041469860E1   1.016815904583421E2  -1.011988885968382E1   7.054621265208026E1  -3.250420855980999E1   6.213920279931471E1  
 1.572493887530562E11   -2.261287451496749E1  -1.158289863194551E2  -9.829079924524828   5.267272811710762E1  -9.885005150156564   2.218009807562515E1  -2.774978995443187E1  -6.610283495396844  
 1.572616136919316E11   -2.762617061140191E1  -1.422893609284860E2  -9.973162943883432   4.114500273438832  -1.002367842532989E1  -2.682999756971002E1  -2.851383655839791E1  -5.533382404474205E1  
 1.572738386308069E11   -3.032720696421636E1  -7.971566192798646E1  -1.008354061068894E1  -4.174852219219025E1  -1.012532620737451E1  -7.275409751115213E1  -4.775065645653420E1   5.561864068431746  
 1.572860635696822E11   -2.285604899716037E1  -1.052916344900228E2  -9.801839857301172  -8.907370341563937E1  -9.864390201129318  -1.199552743365834E2  -2.728471204643057E1   1.467787937565536E1  
 1.572982885085575E11   -2.234890844556513E1  -1.451212760536544E2  -9.767159352590888  -1.379431572454326E2  -9.817042096742076  -1.690911954697721E2  -2.340640824800592E1  -1.657109167407040E1  
 1.573105134474328E11   -2.546797355426121E1   1.700607969005247E2  -1.003487817796290E1   1.738626530951096E2  -1.006589193139438E1   1.430800279615019E2  -2.300240781977025E1  -5.072462725436447E1  
 1.573227383863081E11   -3.825336860977706E1   1.185253817207185E2  -1.006917168325057E1   1.284239252944727E2  -1.009823057688725E1   9.719088881149752E1  -2.674863866863575E1  -6.088985436470301E1  
 1.573349633251834E11   -3.678134846447609E1  -1.046516161440121E2  -9.814365393065556   8.079234125903342E1  -9.863037852549018   4.976851533376649E1  -2.558402785652994E1  -5.088595839547400E1  
 1.573471882640587E11   -3.529036025279186E1  -1.572328436570977E2  -9.835423213967829   3.177641408683667E1  -9.878092081286372   5.274913818041637E-1  -2.445994559422175E1  -6.635827912437493E1  
 1.573594132029340E11   -3.697907557271957E1   7.374326207424183E1  -1.013710390529354E1  -1.565174055585854E1  -1.016618759083734E1  -4.678433245908035E1  -2.671998648023626E1  -9.435463290074542E1  
 1.573716381418093E11   -2.780492320665314E1  -2.090821603178454E1  -1.005829179740479E1  -6.061656695173832E1  -1.009333809706868E1  -9.207992198072685E1  -3.348614775996560E1  -4.584474006708668E1  
 1.573838630806846E11   -2.573860982304195E1  -7.397835599410790E1  -9.780131093280989  -1.092979385446458E2  -9.847172820226289  -1.400194148860755E2  -2.484022823106698E1  -4.516071886342392E1  
 1.573960880195599E11   -2.829088866580804E1  -1.095154323279515E2  -9.855825575960090  -1.585934812075410E2  -9.894780137345135   1.704710692105754E2  -2.242346423691249E1  -7.505609310143150E1  
 1.574083129584352E11   -3.571770519251702E1  -7.531616241183112E1  -1.018649013300285E1   1.545985345824423E2  -1.021492307727517E1   1.233213557091360E2  -2.398861981146981E1  -1.143474657202105E2  
 1.574205378973105E11   -2.583511502703020E1  -7.141399171717055E1  -1.004630594882838E1   1.089592938671220E2  -1.009977529700658E1   7.798705432042651E1  -3.632730774667765E1  -1.314455958377634E2  
 1.574327628361858E11   -2.472023478736281E1  -1.083281247029419E2  -9.843376354797979   6.036229913695238E1  -9.896098854426164   2.951473483760355E1  -2.983727496002352E1  -5.052630086193224E1  
 1.574449877750611E11   -2.850531927873345E1  -1.413297425992866E2  -1.009001738442482E1   1.165056798038582E1  -1.009665884147193E1  -1.977591459262176E1  -2.593197768133634E1  -8.366967612544651E1  
 1.574572127139364E11   -3.550218306711095E1  -4.545250361857880E1  -1.033525292437341E1  -3.380990968621331E1  -1.038351591596770E1  -6.555209016065729E1  -3.212243142171258E1  -1.336157952387516E2  
 1.574694376528117E11   -2.384055077442541E1  -7.619337645313050E1  -1.003370271752480E1  -7.989303338815206E1  -1.008687756408832E1  -1.117511487166918E2  -3.148326763249466E1  -9.402211067525276  
 1.574816625916870E11   -2.214267532347267E1  -1.153922583096609E2  -9.938257410260391  -1.290976422622986E2  -9.973004638971135  -1.607930351192645E2  -2.432643283459762E1  -5.018848949293705E1  
 1.574938875305624E11   -2.486584362137300E1  -1.531385817179372E2  -1.022261803876770E1  -1.768721585992093E2  -1.023977547684861E1   1.515982687239419E2  -2.370552732079778E1  -9.289599793308184E1  
 1.575061124694377E11   -3.542654354348698E1  -1.311521801025172E2  -1.020252293269318E1   1.378751484211558E2  -1.022592264971686E1   1.065358995971532E2  -3.161848167963811E1  -1.205173132761432E2  
 1.575183374083130E11   -2.757560972236194E1  -1.044180998304944E2  -9.856936161861290   8.984845938286942E1  -9.886664442353464   5.817980699811831E1  -3.053001999843178E1  -5.666843926777393E1  
 1.575305623471883E11   -2.635467402023122E1  -1.248328621607361E2  -9.910976230003371   4.032717893589089E1  -9.945834605638334   8.379536991940658  -2.577192432866391E1  -7.851337108137662E1  
 1.575427872860636E11   -2.989992843519280E1  -1.294820140467915E2  -1.033175478472359E1  -6.754014734302581  -1.035738900212044E1  -3.916756714462034E1  -2.609133598916844E1  -1.208011429877316E2  
 1.575550122249389E11   -2.561622694050552E1  -9.499364358419648E1  -1.029724671946279E1  -5.189010096409140E1  -1.030896350702877E1  -8.440224429399081E1  -3.894018370615030E1   1.641128345723218E2  
 1.575672371638142E11   -2.143149915138772E1  -1.235622811369404E2  -1.005504097003980E1  -9.984653907759784E1  -1.009629250314054E1  -1.319444002860127E2  -3.015186754476960E1  -1.247737362673606E1  
 1.575794621026895E11   -2.165689441087287E1  -1.585624091778969E2  -1.016853817388377E1  -1.486637293534313E2  -1.018476319177853E1   1.790358638862991E2  -2.564865080227965E1  -5.444272630489698E1  
 1.575916870415648E11   -2.721530935324498E1   1.694543615569129E2  -1.046587658024250E1   1.652314472034434E2  -1.050575935938816E1   1.327373267179315E2  -2.774073490300471E1  -9.759332804322007E1  
 1.576039119804401E11   -3.003152832380519E1  -1.124330843145865E2  -1.027117119660336E1   1.196722090350875E2  -1.028068321627814E1   8.712116963258931E1  -3.575820723752750E1  -2.899740130169376E1  
 1.576161369193154E11   -2.234637148243165E1  -1.337736666627945E2  -1.007567323847602E1   7.110122079042610E1  -1.007835381468974E1   3.868038736684383E1  -2.484380096775515E1  -3.377002216392597E1  
 1.576283618581907E11   -2.099634123238256E1  -1.713143357525525E2  -1.022682749191950E1   2.257897201370074E1  -1.023578850159760E1  -1.006305466330015E1  -2.177674116660455E1  -6.828407002302538E1  
 1.576405867970660E11   -2.497134376586976E1   1.508123728315369E2  -1.041358086423437E1  -2.291081939067886E1  -1.042635645993498E1  -5.523813619255261E1  -2.382464674980892E1  -1.048805203396133E2  
 1.576528117359413E11   -3.460701933638124E1  -1.767156721339229E2  -1.006037295425469E1  -6.936505137648651E1  -1.009748675853269E1  -1.017038859325342E2  -2.871905807756150E1  -9.039729149909469E1  
 1.576650366748166E11   -2.755384111945726E1  -1.513482969662174E2  -9.918174442395443  -1.185426235300547E2  -9.945864905891400  -1.509692019249607E2  -2.490648881726679E1  -8.266886945251697E1  
 1.576772616136919E11   -2.602749473848418E1  -1.771584305564294E2  -1.014327218928344E1  -1.668513273980494E2  -1.016571069107054E1   1.607033605972837E2  -2.274286426576110E1  -1.105629146738100E2  
 1.576894865525672E11   -3.121027625579888E1  -1.741944220515738E2  -1.019834547472063E1   1.475419121167934E2  -1.023167337046368E1   1.150814332891107E2  -2.580093931352031E1  -1.537332262069526E2  
 1.577017114914425E11   -2.488755011943949E1  -1.473214361368529E2  -9.970647709531237   9.999565421546126E1  -9.990942762566499   6.707520576258949E1  -3.939419326525695E1   1.709260054369558E2  
 1.577139364303178E11   -2.140383647629669E1  -1.758378913387710E2  -9.996152833563151   5.074953427492367E1  -1.002052931794167E1   1.863893672726303E1  -3.236839907638129E1  -4.277523819826619E1  
 1.577261613691932E11   -2.150782044622141E1   1.448046579283588E2  -1.029398025034590E1   3.316718905448063  -1.032472898449256E1  -2.899368446071380E1  -2.738699020310308E1  -8.539446963357571E1  
 1.577383863080685E11   -2.824157890088220E1   1.060504225926132E2  -1.022134900294157E1  -4.196200726401695E1  -1.023440918252678E1  -7.418947888638341E1  -3.442488205994528E1  -1.032691917924043E2  
 1.577506112469438E11   -3.284482246110218E1  -1.463259738609130E2  -1.000004983822493E1  -8.997288501882976E1  -1.001327635499813E1  -1.226363903780977E2  -2.938796423945762E1  -4.720897189868705E1  
 1.577628361858191E11   -2.265052271872923E1  -1.731616261539362E2  -1.011567730862246E1  -1.392919147930648E2  -1.017213283271711E1  -1.714466041052986E2  -2.407824593279267E1  -7.182271448149125E1  
 1.577750611246944E11   -2.042371412373576E1   1.437914013457470E2  -1.042283590299768E1   1.744778549716394E2  -1.046605996743418E1   1.427452865315789E2  -2.423639950348037E1  -1.075841176779898E2  
 1.577872860635697E11   -2.246081672904649E1   1.089805752358331E2  -1.010271786298962E1   1.291044771184295E2  -1.015300624586295E1   9.690986011861455E1  -2.739675724298542E1  -1.027202856232313E2  
 1.577995110024450E11   -2.515533500380641E1   9.108496799873068E1  -9.889484491872445   7.994419303413680E1  -9.922257234117662   4.808998370033120E1  -2.420374817846871E1  -1.067300221625617E2  
 1.578117359413203E11   -2.649216979264048E1   7.665947722713725E1  -1.009352327377455E1   3.080521374529215E1  -1.012323347208930E1  -1.168558587093144  -2.249752647057754E1  -1.373258424313711E2  
 1.578239608801956E11   -2.593544713216799E1   3.552559955730374E1  -1.030481189154993E1  -1.528348302062851E1  -1.035518294747480E1  -4.686733422855888E1  -2.316942807575017E1   1.728474709118981E2  
 1.578361858190709E11   -2.664318338529192E1  -3.747410053208255E1  -1.010517724745825E1  -6.199251950798427E1  -1.013686884167527E1  -9.370091427524146E1  -2.751134546730276E1   9.772329071812824E1  
 1.578484107579462E11   -2.561949384364331E1  -1.093749331449211E2  -1.003687092039698E1  -1.108563397544996E2  -1.007198755125909E1  -1.422439213444671E2  -2.818584712282290E1  -5.342417284177890  
 1.578606356968215E11   -2.548049234376673E1  -1.662350813028886E2  -1.033650633305221E1  -1.587740186149559E2  -1.034685387938607E1   1.694444008349301E2  -2.508389798162427E1  -7.739220528666803E1  
 1.578728606356968E11   -3.071788828929772E1   1.683000111024282E2  -1.039401890891653E1   1.556950833307718E2  -1.040411640337263E1   1.242956645204502E2  -2.693618709316712E1  -1.395724853919024E2  
 1.578850855745721E11   -2.787153599828981E1  -1.597092502600875E2  -1.012209778016967E1   1.082052368710177E2  -1.015100820114162E1   7.721554941329896E1  -3.685390296863407E1   1.749911160757141E2  
 1.578973105134475E11   -2.297388388353460E1   1.753449198812761E2  -1.016511650824335E1   5.954045175386065E1  -1.020376594338135E1   2.834752155968670E1  -3.870336303880537E1  -6.449201328414300E1  
 1.579095354523228E11   -2.138298268371182E1   1.335873058952003E2  -1.050663755053028E1   1.243851041800207E1  -1.055513073617653E1  -1.848498456839155E1  -3.118655300876596E1  -1.281770882677036E2  
 1.579217603911981E11   -2.483611569387117E1   8.805835409201589E1  -1.035527266939247E1  -3.212696111512352E1  -1.039104032450362E1  -6.320989095315545E1  -3.116890087681101E1   1.243796743855730E2  
 1.579339853300734E11   -3.806339979855551E1   7.648721752471894E1  -1.001853646711274E1  -8.006104966087803E1  -1.006477903705491E1  -1.111395217861381E2  -2.838956672929187E1   3.034597262174599E1  
 1.579462102689487E11   -2.997354585227586E1   1.588161053125826E2  -1.005186497195157E1  -1.294589008139731E2  -1.009923503770518E1  -1.602860589302185E2  -2.633412787632346E1  -2.884412961878599E1  
 1.579584352078240E11   -2.742304471061818E1   1.113099214279187E2  -1.030657540518913E1  -1.758850385079247E2  -1.032532577659916E1   1.532073353478679E2  -2.876658788726686E1  -8.409505647665442E1  
 1.579706601466993E11   -3.825994447458184E1   5.027062116359672E1  -1.004722219913159E1   1.376592190136747E2  -1.007908524782373E1   1.066901373070249E2  -4.117298060009958E1   2.134026121577169E1  
 1.579828850855746E11   -2.915518242708959E1  -1.446220789177090E2  -9.910853618725101   8.843267869184953E1  -9.937609017114861   5.804091071293411E1  -2.602775512966179E1  -6.647699535155143  
 1.579951100244499E11   -2.204869482025005E1   1.722121365677615E2  -1.011563134656855E1   3.959710416401644E1  -1.015574471510155E1   8.910172390406416  -2.222484239327788E1  -4.483315166747119E1  
 1.580073349633252E11   -2.012334276428543E1   1.313589239358201E2  -1.034026226918627E1  -5.859030014445764  -1.035815558817791E1  -3.647132677391844E1  -2.296815869830342E1  -8.202426652925246E1  
 1.580195599022005E11   -2.159360022425691E1   1.039357390255373E2  -1.006576534539527E1  -5.232308260641984E1  -1.007410248971832E1  -8.307360818993163E1  -2.519416108187086E1  -8.564176486938568E1  
 1.580317848410758E11   -2.300576141251746E1   9.326421604970587E1  -9.949162329610477  -1.015933612875005E2  -9.967622190121389  -1.318978769796302E2  -2.353793892348356E1  -9.414534482630397E1  
 1.580440097799511E11   -2.237598226640749E1   8.714571651792892E1  -1.015731566289053E1  -1.499175464478308E2  -1.020228121292229E1   1.795620648491037E2  -2.282370679990076E1  -1.208529676287182E2  
 1.580562347188264E11   -2.171419429010220E1   6.201804556988804E1  -1.023649342248796E1   1.640006529402129E2  -1.026815476508404E1   1.337199771954962E2  -2.564422897367955E1  -1.630913084419334E2  
 1.580684596577017E11   -2.469147427129867E1   3.896561024637122E1  -1.001891104650721E1   1.170080887572966E2  -1.005103828371714E1   8.628898049120419E1  -4.185321252620230E1   1.718268125991453E2  
 1.580806845965770E11   -2.862302489149977E1   4.595816083207102E1  -1.002225048085501E1   6.770061868141606E1  -1.006052118543400E1   3.737190657567997E1  -3.069016814500527E1  -9.010093645493957E1  
 1.580929095354523E11   -2.517070640865844E1   5.636677796600212E1  -1.033811002038091E1   2.005380529367341E1  -1.037935540253490E1  -1.100345802605687E1  -2.641061244530679E1  -1.371281650208543E2  
 1.581051344743276E11   -2.282240564716275E1   1.834532129811374E1  -1.040811145694566E1  -2.550201036116727E1  -1.043635180756872E1  -5.653161653923932E1  -2.685316463704789E1   1.481399428996621E2  
 1.581173594132029E11   -2.431498761182394E1  -3.282534243718339E1  -1.028894238788437E1  -7.289272690597007E1  -1.034453564672164E1  -1.036839015345486E2  -2.744309391366837E1   5.584466107976339E1  
 1.581295843520783E11   -2.760514238840767E1  -1.068626215975750E2  -1.037594542025588E1  -1.208638257627898E2  -1.041986529822624E1  -1.516527565903853E2  -2.545511279205250E1  -2.465916548116461E1  
 1.581418092909536E11   -2.916579047292763E1   1.536992632056164E2  -1.052206631773642E1  -1.659448004989126E2  -1.054310557426275E1   1.628792424946547E2  -2.598729323377822E1  -9.371314256037076E1  
 1.581540342298289E11   -3.133750004724462E1   1.001801782403311E2  -1.017092405703357E1   1.477043303239942E2  -1.020698768325652E1   1.163928804478096E2  -3.375516738713441E1  -1.583116391812355E2  
 1.581662591687042E11   -3.162308652462304E1   1.083841098692879E2  -9.984191199953751   9.837269040031015E1  -1.000889067235729E1   6.709790405106912E1  -4.310381645312022E1   3.229461218056080E1  
 1.581784841075795E11   -2.551032475175256E1   9.787659188666200E1  -1.016920529705504E1   4.918084767665319E1  -1.020093409785497E1   1.836790343665540E1  -3.412540858121675E1  -5.055671543234667E1  
 1.581907090464548E11   -2.195269960420405E1   5.293786799057956E1  -1.042278092941803E1   3.295210514533061  -1.044122471546642E1  -2.743956485980145E1  -3.539876579295959E1  -1.620988337262862E2  
 1.582029339853301E11   -2.254147340755186E1   8.215300081478778E-2  -1.021222159758102E1  -4.339066633085458E1  -1.026151345975464E1  -7.431355850909682E1  -2.667950804788513E1   7.184001139547272E1  
 1.582151589242054E11   -2.515636373014944E1  -6.147194595471366E1  -1.016146900702760E1  -9.140799041389343E1  -1.020831966353338E1  -1.228240851186666E2  -2.175477737457624E1   1.402823889739294E1  
 1.582273838630807E11   -2.699934026941282E1  -1.563534465771804E2  -1.034265082229795E1  -1.391629208266964E2  -1.041446935612598E1  -1.700208290463928E2  -2.074915790639048E1  -3.025630217494691E1  
 1.582396088019560E11   -2.583896532339908E1   1.165781962536284E2  -1.031351294259389E1   1.756591155364715E2  -1.031773282002513E1   1.444524457669859E2  -2.304180356024991E1  -5.584845898157182E1  
 1.582518337408313E11   -2.634573979631420E1   6.758245627019250E1  -1.005450459453016E1   1.274158125482937E2  -1.007435424892292E1   9.633326750718052E1  -2.344453634555652E1  -5.475056716961106E1  
 1.582640586797066E11   -2.987896832448215E1   4.354244724784898E1  -1.009897829729513E1   7.891364804545196E1  -1.013037348294192E1   4.748265387280880E1  -2.167312644838718E1  -6.923804832484143E1  
 1.582762836185819E11   -2.806052582308927E1   6.680858974653800E1  -1.037006686063502E1   3.170890669522656E1  -1.039618157136060E1   3.943851387145054E-1  -2.141065949111904E1  -1.001972205788712E2  
 1.582885085574572E11   -2.384233763772994E1   3.259538822309115E1  -1.018892227549211E1  -1.380819513638913E1  -1.023231943994962E1  -4.491703261059423E1  -2.724242584914563E1  -1.387639184017830E2  
 1.583007334963325E11   -2.427478861249477E1  -4.223584528935947  -9.929471854104497  -6.192535897837519E1  -9.950155076017627  -9.286462709664200E1  -3.406304076077263E1  -3.791282441784606E1  
 1.583129584352078E11   -2.649968649505149E1  -3.693351996077823E1  -9.931248943773570  -1.107620983694547E2  -9.976039255765198  -1.419394448660885E2  -2.373331262909211E1  -5.874514174632199E1  
 1.583251833740831E11   -3.141044050280665E1  -4.856600663353122E1  -1.004125139293846E1  -1.582760551489491E2  -1.007589097750614E1   1.710367597526399E2  -2.209205722269686E1  -9.711241096912880E1  
 1.583374083129584E11   -3.033884511256639E1  -5.414169479466895E1  -9.967926998738106   1.539414939902563E2  -1.002107634055457E1   1.235747574427018E2  -2.588573694524721E1  -1.283793175979269E2  
 1.583496332518337E11   -2.950270265103077E1  -9.424741670568282E1  -9.988762402668783   1.053736140780459E2  -1.004458312087679E1   7.500565503718002E1  -3.235045871712199E1  -1.063751742852757E2  
 1.583618581907091E11   -2.925585033474990E1  -1.575071425869858E2  -1.028666000344847E1   5.767730845328574E1  -1.031719043730671E1   2.683135667398632E1  -2.694625128760320E1  -9.428980986400410E1  
 1.583740831295844E11   -3.131463989334060E1   1.187937728752706E2  -1.035829514415271E1   1.236228405093739E1  -1.039776939339815E1  -1.887189766056619E1  -2.702909405295207E1  -1.337296861977385E2  
 1.583863080684597E11   -3.817686795012342E1   2.957082315541802E1  -1.013097828420845E1  -3.482987695536263E1  -1.018125397440206E1  -6.622826593489835E1  -4.014342151787120E1   1.789484798181007E2  
 1.583985330073350E11   -3.871621552199456E1  -1.421438299133452E2  -1.016826551479055E1  -8.359500631441638E1  -1.020360229878397E1  -1.146958783782520E2  -2.997939131181354E1  -3.527514813149227E1  
 1.584107579462103E11   -2.928239090921999E1   1.323646696598304E2  -1.042564969529818E1  -1.302815639793091E2  -1.047126570050765E1  -1.616420544069297E2  -2.456548903497192E1  -8.188654798209025E1  
 1.584229828850856E11   -2.734827010437951E1   6.251699654211372E1  -1.027272235657608E1  -1.761049808624914E2  -1.031547934824807E1   1.529577760232383E2  -2.712491796873202E1  -1.335799646960455E2  
 1.584352078239609E11   -2.913122037804671E1  -3.647175617318416E-1  -1.006028598588673E1   1.356520280675750E2  -1.009021737202024E1   1.045152064938244E2  -4.651289382600049E1   1.164683107213416E2  
 1.584474327628362E11   -3.069555970749109E1  -7.491397657120560E1  -1.014153168297148E1   8.700423869483795E1  -1.019214908931487E1   5.605823202487434E1  -2.684854923914617E1  -2.371666974866545E1  
 1.584596577017115E11   -3.081251206776020E1  -1.687343049348849E2  -1.040777830311960E1   4.027227563582540E1  -1.043553148884000E1   9.086783455847224  -2.269905772132761E1  -6.883692476912646E1  
 1.584718826405868E11   -3.338664663353835E1   1.346486079511437E2  -1.023188050802338E1  -5.734169082158552  -1.026178773613899E1  -3.654962356659789E1  -2.457193751398163E1  -1.049174552192539E2  
 1.584841075794621E11   -3.487491317616667E1   1.318725819262174E2  -1.003891480089717E1  -5.418376757725616E1  -1.011728045106529E1  -8.562104819699927E1  -2.918660626784751E1  -9.090350792687876E1  
 1.584963325183374E11   -3.142412866805898E1   1.467307403429304E2  -1.024574015176099E1  -1.029888910548391E2  -1.027806465070257E1  -1.343637324187090E2  -2.409913393885175E1  -7.666041513946583E1  
 1.585085574572127E11   -2.571189908948157E1   1.187691718378963E2  -1.049190048481828E1  -1.488541322558522E2  -1.051520236987300E1   1.799168911626552E2  -2.131584536938345E1  -1.087668120667440E2  
 1.585207823960880E11   -2.651958492742111E1   8.270815093245270E1  -1.016311843235337E1   1.650674340529590E2  -1.017919224064817E1   1.344782846433683E2  -2.400519991832158E1  -1.399919756065771E2  
 1.585330073349633E11   -2.774570415718418E1   8.046989003649318E1  -9.944747109366277   1.163959612759519E2  -9.974747836535659   8.515896994641682E1  -2.859050969361517E1  -1.310101443669178E2  
 1.585452322738386E11   -2.570456621939736E1   7.837615841565281E1  -1.014141520186103E1   6.714505646409263E1  -1.017876400284211E1   3.644015764196818E1  -2.470179155786624E1  -1.160762418710801E2  
 1.585574572127139E11   -2.263895485632369E1   5.512045668565810E1  -1.036259122886927E1   2.071582731219003E1  -1.041076166513969E1  -9.811487376760978  -2.150846652070687E1  -1.494804084523009E2  
 1.585696821515892E11   -2.337077435735790E1   1.386839337017381E1  -1.020819056509539E1  -2.608697625368033E1  -1.024927575907716E1  -5.667298178517264E1  -2.303454292879207E1   1.621282583185908E2  
 1.585819070904645E11   -2.881070774770491E1  -2.685707566172526E1  -1.024749479328085E1  -7.479398261033902E1  -1.031391116176323E1  -1.053395271520397E2  -2.902675463870918E1   1.015568790319042E2  
 1.585941320293398E11   -3.968554836823763E1   9.620193964397198E1  -1.050554589530352E1  -1.214835991633282E2  -1.054476886617682E1  -1.521814964783367E2  -3.707264972794346E1  -5.490239433255846E1  
 1.586063569682152E11   -2.745608504596727E1   4.814682819872341E1  -1.036691156978308E1  -1.672187085764608E2  -1.039396060975494E1   1.622882632608443E2  -3.170471848889693E1  -1.663580217128693E2  
 1.586185819070905E11   -2.780420460863409E1   5.814070447402581E-1  -1.019430149083784E1   1.445939613545157E2  -1.020881898715889E1   1.137607579915261E2  -3.114905696599714E1   1.031904842487894E2  
 1.586308068459658E11   -3.337416689575836E1  -6.186714734319261E1  -1.032352561169336E1   9.603027959132515E1  -1.035932932036404E1   6.549926549584332E1  -2.729946216557688E1   1.588998126327284E1  
 1.586430317848411E11   -3.146081110174245E1   1.496648480927885E2  -1.061114973271910E1   5.022288035081589E1  -1.060829951263258E1   1.910046482564009E1  -2.515398037608713E1  -4.849420529844566E1  
 1.586552567237164E11   -2.683444835000172E1   8.003276018740793E1  -1.036152276156158E1   4.557943683340821  -1.037210890278308E1  -2.577256384005776E1  -2.859512500969972E1  -8.908984843290624E1  
 1.586674816625917E11   -2.714748310380848E1   4.920214477597632E1  -1.006045954287063E1  -4.394269915497991E1  -1.007404932336682E1  -7.438141035276280E1  -3.127668875271923E1  -6.801491961149601E1  
 1.586797066014670E11   -3.023909985006210E1   3.332814163163840E1  -1.018578597502090E1  -9.296602462140203E1  -1.021300530312407E1  -1.235446014822203E2  -2.611215545394568E1  -6.636146654105249E1  
 1.586919315403423E11   -2.943634102885293E1   7.278949266434277E1  -1.039588891957480E1  -1.399255912194584E2  -1.040778307857251E1  -1.698470000869661E2  -2.396045121889334E1  -9.848458087059377E1  
 1.587041564792176E11   -2.532950234881787E1   4.781871163207782E1  -1.016571835971850E1   1.737000956008853E2  -1.020744830143096E1   1.434742040771741E2  -2.674989296665294E1  -1.219409802226477E2  
 1.587163814180929E11   -2.579558287058833E1   2.769075673903978E1  -1.009175938956133E1   1.251996173826540E2  -1.013099541285491E1   9.422613053958035E1  -2.825097419676573E1  -1.071475671727035E2  
 1.587286063569682E11   -2.857579205957640E1   2.706105972287880E1  -1.038790474785719E1   7.709787887670284E1  -1.040884207061596E1   4.600827471403549E1  -2.398922379313366E1  -1.114798624704061E2  
 1.587408312958435E11   -2.401261058615107E1   4.089981951037309E1  -1.044403226469650E1   3.223381937474633E1  -1.045863458724275E1   1.364614102986590  -2.214691087230436E1  -1.481445581171590E2  
 1.587530562347188E11   -2.202825497182752E1   6.308131860966332  -1.013118893770049E1  -1.509677651413480E1  -1.015978839121753E1  -4.606954426157558E1  -2.496089474497297E1   1.709530356795053E2  
 1.587652811735941E11   -2.388596667796696E1  -2.560168203072722E1  -1.009480246073589E1  -6.362010019802708E1  -1.011288515486540E1  -9.454132351035767E1  -3.481383532723076E1   1.315631062543187E2  
 1.587775061124694E11   -3.133568904209185E1  -4.872449183745510E1  -1.035755555965934E1  -1.112804351728147E2  -1.038203611274406E1  -1.420631133541828E2  -3.094780625788966E1  -1.076820522422952E2  
 1.587897310513447E11   -2.951719957385687E1   1.474644007809944E1  -1.021862817666849E1  -1.568748419324539E2  -1.023003929031928E1   1.725780184049568E2  -2.619630273307183E1  -1.589635623318545E2  
 1.588019559902200E11   -2.696944672798307E1  -2.136915733540458E1  -9.943159106153656   1.543961874489415E2  -9.960130649229773   1.238183154401158E2  -2.781700577392286E1   1.580661415951440E2  
 1.588141809290953E11   -3.105289542122187E1  -6.504187317709341E1  -1.004952868806028E1   1.048103267807611E2  -1.004053643702543E1   7.478682019207979E1  -3.536839711950172E1   1.185794150911912E2  
 1.588264058679706E11   -3.387471015690812E1   1.229399388302430E2  -1.037942180686133E1   5.794250856299300E1  -1.038549189105080E1   2.749284538221545E1  -3.530817707179369E1  -1.394040254458790E2  
 1.588386308068460E11   -2.400075122317250E1   4.481592375075259E1  -1.026037526646734E1   1.215374738993081E1  -1.023705025988286E1  -1.793994348791738E1  -2.827949744731030E1   1.589434599879702E2  
 1.588508557457213E11   -2.279734894887204E1  -4.441765468004038  -1.008333367756786E1  -3.628355679730690E1  -1.007537656010347E1  -6.678492340840961E1  -2.792571386634040E1   9.676221408650257E1  
 1.588630806845966E11   -2.565403812053513E1  -4.865766388730328E1  -1.031003629580332E1  -8.481786815320756E1  -1.032409245317553E1  -1.150463068236634E2  -2.912397498396764E1   1.854935187318693E1  
 1.588753056234719E11   -4.080017830929121E1  -1.067402160791932E1  -1.051625892202971E1  -1.299485092140757E2  -1.051545594777765E1  -1.601615287179063E2  -3.060161971432788E1  -7.428411569536792E1  
 1.588875305623472E11   -2.757257999217163E1  -6.248717301050387  -1.020277503123882E1  -1.766432845418411E2  -1.016804826602638E1   1.531104613028070E2  -3.374056217477315E1  -1.588130101904149E2  
 1.588997555012225E11   -2.799646510790195E1  -5.162718352065009E1  -1.009357214582582E1   1.342578520140117E2  -1.009548298561867E1   1.037034503117634E2  -3.735901860407595E1   9.882394655040564E1  
 1.589119804400978E11   -3.306532289536128E1  -1.226385854414820E2  -1.039419575207784E1   8.578522520251191E1  -1.039802704260364E1   5.567919475040564E1  -3.413896642324480E1  -2.385603847849740E1  
 1.589242053789731E11   -2.813705864912837E1   9.318919739953751E1  -1.061105972835977E1   4.087203943335851E1  -1.062972986479598E1   1.048622244343148E1  -3.017570337593731E1  -1.242692484088271E2  
 1.589364303178484E11   -2.368722900473343E1   2.233115151501427E1  -1.022887889506272E1  -5.309074102842002  -1.022066439110376E1  -3.567156979590155E1  -3.038244909899541E1   1.498768129940001E2  
 1.589486552567237E11   -2.411497798736899E1  -3.163209906061331E1  -1.011643612009571E1  -5.418010007421152E1  -1.009847056702957E1  -8.442763251906472E1  -3.082638589291456E1   6.580737457812546E1  
 1.589608801955990E11   -2.794610125771194E1  -9.388475355362455E1  -1.031883692924579E1  -1.019269770934971E2  -1.034940515036745E1  -1.320123412385029E2  -3.080037816233287E1  -2.251830033171802E1  
 1.589731051344743E11   -3.492909873283088E1   1.325671222321490E2  -1.022117741826034E1  -1.470870917433452E2  -1.021856157102528E1  -1.774513163548574E2  -3.352616026949709E1  -1.107172481779949E2  
 1.589853300733496E11   -3.290953048311324E1   4.851176382451850E1  -9.884075554417034   1.646504416921624E2  -9.871781264840946   1.337504225261374E2  -3.931212209315441E1   1.773673130640321E2  
 1.589975550122250E11   -3.599333777437698E1   2.839099848039533E1  -9.918229790668839   1.154321441099915E2  -9.922948463572688   8.439228058349876E1  -5.265988300285229E1   7.931985648144567E1  
 1.590097799511003E11   -3.265857780244201E1   9.976774673741204E1  -1.022621734239725E1   6.789484392763141E1  -1.025361782259254E1   3.713631248535877E1  -3.609593270891938E1  -1.270503843004869E2  
 1.590220048899756E11   -2.443705525311054E1   6.455175869506351E1  -1.009050605765059E1   2.230263796672966E1  -1.010219442486220E1  -8.317950480247262  -2.995062842504881E1   1.579336101516961E2  
 1.590342298288509E11   -2.460588725174729E1   3.071452711791581E1  -9.854881021470938  -2.638501532394803E1  -9.878019906348479  -5.716083826606680E1  -2.893968612753869E1   9.862631964127574E1  
 1.590464547677262E11   -2.815265120210197E1   3.174070608065447E1  -1.005750542118625E1  -7.595247164237139E1  -1.005952769961408E1  -1.064744368931115E2  -3.066851162304513E1   4.254225105097608E1  
 1.590586797066015E11   -2.253031105071930E1   5.972318844949199E1  -1.037294572887647E1  -1.214532998505058E2  -1.036443354999367E1  -1.525874054253007E2  -4.359995397312272E1  -1.080881208731485E2  
 1.590709046454768E11   -1.803080087529451E1   2.809293623313857E1  -1.011981941224513E1  -1.675726539284294E2  -1.013680395460745E1   1.612809869271544E2  -2.703697919994098E1   1.230432492281096E2  
 1.590831295843521E11   -1.765395038166768E1  -2.721959772677695  -9.955711187585983   1.433915955631209E2  -9.993350022152864   1.128327548896405E2  -2.290025130943332E1   6.893740757751523E1  
 1.590953545232274E11   -1.956555857084450E1  -2.706207044550553E1  -1.018425007060058E1   9.492613056032333E1  -1.022574615738994E1   6.423985980447212E1  -2.262912263124345E1   1.812694752423970E1  
 1.591075794621027E11   -2.247901829462919E1  -2.034261044294079E1  -1.034743514108101E1   4.960175646200625E1  -1.034371658132988E1   1.866072133929171E1  -2.835954101014541E1  -3.858959468916735E1  
 1.591198044009780E11   -1.955425551446557E1  -2.413120448428222E1  -1.003948612086255E1   2.495171506656378  -1.007569813462673E1  -2.874698348011317E1  -3.742780701163495E1   1.227569290257959E2  
 1.591320293398533E11   -1.911843535669105E1  -4.925396226171830E1  -1.007210554554516E1  -4.668370219476853E1  -1.011084593824744E1  -7.797687676377568E1  -2.549060808155346E1   6.594266390953301E1  
 1.591442542787286E11   -2.223407338399933E1  -7.703706262387028E1  -1.037548898624563E1  -9.373400538621890E1  -1.039275809950839E1  -1.254445881857322E2  -2.423083721576382E1   2.028893990412462E1  
 1.591564792176039E11   -2.894785967308573E1  -4.654135795493716E1  -1.023762355696197E1  -1.388930941249510E2  -1.025978473241634E1  -1.705491808227130E2  -2.983805335292256E1   1.132283258144002E1  
 1.591687041564792E11   -2.270420795816947E1  -3.818607763936461E1  -9.947779105565413   1.722080716392055E2  -9.992124281753652   1.410958989238075E2  -2.656832162098967E1   4.802352942052470E1  
 1.591809290953545E11   -2.077590115207156E1  -6.569929378999254E1  -1.012113078350173E1   1.229037164072084E2  -1.013248515264685E1   9.163600834236588E1  -2.137377712469366E1   3.164581983460273E1  
 1.591931540342298E11   -2.237769005363077E1  -1.089795766698245E2  -1.053759654055906E1   7.696119758657443E1  -1.057021417503611E1   4.537717581558534E1  -2.041940333281922E1   5.275638594316755E-1  
 1.592053789731051E11   -3.259082685854330E1  -1.730036308212679E2  -1.028348073803087E1   3.220893025953689E1  -1.030745524891115E1   8.547950678518284E-1  -2.212666482447268E1  -4.423806946289182  
 1.592176039119804E11   -3.051408943100706E1   2.954531724671317E1  -9.984334461254694  -1.664303206026138E1  -1.001030467925165E1  -4.828127792740457E1  -2.008963202380691E1  -9.179298231880564  
 1.592298288508557E11   -2.380928205917914E1  -1.182314530018347E1  -1.015594667784750E1  -6.592787910738397E1  -1.020676644203143E1  -9.721642287210455E1  -1.864063539447474E1  -3.017335273414092E1  
 1.592420537897311E11   -2.344215272978666E1  -4.200323113095620E1  -1.044522362599436E1  -1.112869457159874E2  -1.048151499073917E1  -1.432259307494502E2  -1.948994047053167E1  -6.210567382962577E1  
 1.592542787286064E11   -2.237578597437039E1  -4.789936078359943E1  -1.007984014034078E1  -1.576590186728239E2  -1.012291428474321E1   1.708874531703664E2  -2.389432533110898E1  -8.366640466610890E1  
 1.592665036674817E11   -2.143307556177354E1  -7.043317276355235E1  -9.930140319467501   1.530123418453776E2  -9.985347564721923   1.214177785435197E2  -3.145020485446957E1  -7.388039906215938E1  
 1.592787286063570E11   -2.201095245874733E1  -9.642173031679455E1  -1.015465317177788E1   1.041233385763520E2  -1.023027338366604E1   7.296137563456925E1  -2.836282500579138E1  -2.990629438644567E1  
 1.592909535452323E11   -2.574350548021294E1  -1.312698790574847E2  -1.026395446642692E1   5.911119412894012E1  -1.028530021273525E1   2.780239252440067E1  -2.860446433188807E1  -3.585465453145944E1  
 1.593031784841076E11   -3.565105558811941E1  -1.186273106716701E2  -9.926249702753527   1.152106725014911E1  -9.987773672673342  -1.963515929771620E1  -2.575693176160886E1  -1.532117224991123E1  
 1.593154034229829E11   -3.270068653444162E1  -7.540905593588194E1  -9.967958242671193  -3.794213540842063E1  -1.003769939750748E1  -6.935901185748107E1  -2.243074202844897E1  -2.794358935277121E1  
 1.593276283618582E11   -3.240395802590367E1  -9.503831536953700E1  -1.034602535926756E1  -8.577929451538341E1  -1.039424880481536E1  -1.172967756031202E2  -2.069237840031415E1  -5.273060836379374E1  
 1.593398533007335E11   -4.087036287828961E1   4.562261553430364  -1.033046802689841E1  -1.305675745733920E2  -1.037961921568783E1  -1.617536158305738E2  -2.326402341262738E1  -8.629871902117736E1  
 1.593520782396088E11   -2.603764413232737E1  -3.360983944726149E1  -1.002036785811841E1  -1.782847153953756E2  -1.006781630907254E1   1.501088946113619E2  -3.149699233993572E1  -8.767710255078150E1  
 1.593643031784841E11   -2.342495306179493E1  -7.658431201713563E1  -1.014061287761625E1   1.322860748517648E2  -1.018079307820848E1   1.012220482501375E2  -2.899119360556585E1  -1.627613195672054E1  
 1.593765281173594E11   -2.457695679057453E1  -1.257971855627576E2  -1.043146553625204E1   8.628413589368421E1  -1.052108585117376E1   5.506517388352932E1  -2.403889945292022E1  -3.679426214316057E1  
 1.593887530562347E11   -3.329695397050563E1  -1.737721007021429E2  -1.009829810573293E1   4.048278759581477E1  -1.016360255961996E1   9.608852002296830  -2.547894661785276E1  -4.500375210455140E1  
 1.594009779951100E11   -4.414531754842977E1  -1.149096759072957E2  -9.852643335457747  -9.030426943885594  -9.919380430234957  -3.976596016110590E1  -2.413102151325148E1  -3.820816221669801E1  
 1.594132029339853E11   -4.048467945807418E1  -1.297821306188427E2  -1.006446790782601E1  -5.905500735206101E1  -1.010076496239201E1  -8.961401388982276E1  -2.172681691641012E1  -4.138928118553066E1  
 1.594254278728606E11   -3.333697571161706E1   1.229475067966598E2  -1.058381887805091E1  -1.052413059218688E2  -1.062242139046174E1  -1.361500078047991E2  -1.944025472333024E1  -6.326843864936162E1  
 1.594376528117359E11   -2.595319753388559E1   3.581944891796741E1  -1.037720058542625E1  -1.497017424206788E2  -1.042988541951225E1   1.793167802219200E2  -2.142954784482300E1  -9.405520580418204E1  
 1.594498777506112E11   -2.446644053728973E1  -1.983677670833371E1  -1.008178927067913E1   1.619488044246956E2  -1.013204400124056E1   1.306361940895250E2  -2.738815739126425E1  -9.297530888796159E1  
 1.594621026894865E11   -2.615744149582354E1  -5.827000791887096E1  -1.025650890756450E1   1.127041772473455E2  -1.030924247354425E1   8.169427678755322E1  -2.492824479189586E1  -5.096449895536453E1  
 1.594743276283619E11   -3.478523206631329E1  -6.726408006273169E1  -1.051377930015312E1   6.727124464954628E1  -1.053209892640591E1   3.638473152667330E1  -2.094761971051958E1  -7.338245273237675E1  
 1.594865525672372E11   -2.822233572183379E1  -3.261184231409114E1  -1.014145789062601E1   2.058955758375529E1  -1.020526721753844E1  -1.051642604620371E1  -2.246957503765745E1  -9.538821801478547E1  
 1.594987775061125E11   -2.704298207996454E1  -7.081512096821633E1  -1.007412799967830E1  -2.878654897045541E1  -1.011127117288734E1  -5.970123493440380E1  -2.465236935780300E1  -9.295526810227985E1  
 1.595110024449878E11   -3.107551888090164E1  -1.137573740736296E2  -1.044009869308951E1  -7.684735860413839E1  -1.049662301443106E1  -1.075129729204536E2  -2.230531159976391E1  -8.700330410849482E1  
 1.595232273838631E11   -3.590708249697875E1   4.652466984652795E1  -1.041738603077157E1  -1.214297912159957E2  -1.047241321786050E1  -1.522403460891956E2  -2.126217027654353E1  -1.171243627196217E2  
 1.595354523227384E11   -2.618358624119335E1  -2.652490106220157E1  -1.005415374305328E1  -1.695445656452898E2  -1.008364311191976E1   1.595227750504199E2  -2.492184794271916E1  -1.401850935442784E2  
 1.595476772616137E11   -2.643490257984328E1  -7.937843260575876E1  -1.015865787757142E1   1.405919474424046E2  -1.019384267707564E1   1.094716963209251E2  -3.097167145405607E1  -1.343456307236084E2  
 1.595599022004890E11   -3.120307614476817E1  -1.589472525910311E2  -1.062779724054899E1   9.358994469608486E1  -1.068445156888650E1   6.288894897739912E1  -2.704855216767783E1  -1.023699611010352E2  
 1.595721271393643E11   -2.691821624223306E1   6.228350571925178E1  -1.048043099402798E1   4.961476368295040E1  -1.051456119203534E1   1.900593098949894E1  -2.479401582208692E1  -1.496390067390167E2  
 1.595843520782396E11   -2.274500517916379E1  -3.653082923272700  -1.009351563575168E1   1.416412306456188  -1.015682100783766E1  -2.939992753518104E1  -2.931761536299180E1   1.490100795401274E2  
 1.595965770171149E11   -2.335129958414645E1  -5.031661558906944E1  -1.017094353659798E1  -4.786401925322494E1  -1.023586122616132E1  -7.907761765631483E1  -3.251132225147528E1   4.331451979457928E1  
 1.596088019559902E11   -3.135329501755914E1  -9.018813916079114E1  -1.045081798317269E1  -9.392853431012064E1  -1.050749234400664E1  -1.250373529722572E2  -3.006892917461283E1  -4.669330169604474E1  
 1.596210268948655E11   -2.954638014833031E1   1.892825527257018E1  -1.016745785980410E1  -1.397663331204325E2  -1.023755482942437E1  -1.713632401405312E2  -4.454501614070858E1  -1.003281199816168E2  
 1.596332518337408E11   -2.302047723400145E1  -9.873618296131784  -9.998845537136178   1.707959735042910E2  -1.008002722001109E1   1.399193950528330E2  -2.861532427400939E1   2.270318922185105E1  
 1.596454767726162E11   -2.149123441435970E1  -3.661827606761933E1  -1.024646935066929E1   1.221871041132189E2  -1.030088807215110E1   9.105463037756346E1  -2.178966619173106E1  -1.818813446727288E1  
 1.596577017114915E11   -2.247493181292714E1  -4.861405710881046E1  -1.039513005791921E1   7.698100602892417E1  -1.046100305055278E1   4.530019144209270E1  -2.046789578171920E1  -6.151213358756592E1  
 1.596699266503668E11   -2.035088266312408E1  -5.436285062103070E1  -1.005342416442396E1   2.990878236751641E1  -1.013625626165026E1  -1.653344531012297  -2.228734913826166E1  -8.895595963761750E1  
 1.596821515892421E11   -1.958926465780516E1  -8.107176601469399E1  -9.970048241128247  -1.966048024208774E1  -1.005529558868727E1  -5.101835496632694E1  -2.537895517463709E1  -1.013933619332214E2  
 1.596943765281174E11   -2.157235223494364E1  -1.055273550604760E2  -1.027005498213308E1  -6.856255514636585E1  -1.030751896457952E1  -9.967813550713277E1  -2.591982752591119E1  -8.656090113995676E1  
 1.597066014669927E11   -2.729661760291646E1  -1.132201972657839E2  -1.043845353187748E1  -1.136979538265252E2  -1.048374658870122E1  -1.452201947403457E2  -2.346555596258532E1  -1.072560368444869E2  
 1.597188264058680E11   -2.464132635295022E1  -7.461886229468328E1  -1.018476056197780E1  -1.610116443953080E2  -1.022677882742244E1   1.678367621229378E2  -2.582719146999546E1  -1.339487367687502E2  
 1.597310513447433E11   -2.077994835132320E1  -1.020873094960266E2  -1.027118666240336E1   1.498541882776218E2  -1.031447672315457E1   1.182391156563033E2  -3.152317208239650E1  -1.464453405188646E2  
 1.597432762836186E11   -2.053049429926486E1  -1.441489662209693E2  -1.068545488428784E1   1.030744053274105E2  -1.075224582390658E1   7.173828335064729E1  -3.089036880863641E1  -1.115894794166695E2  
 1.597555012224939E11   -2.422485483708096E1   1.564460494664496E2  -1.056775392628953E1   5.861542245580016E1  -1.061155846289559E1   2.754082355415506E1  -2.813268120591834E1  -1.699765483263233E2  
 1.597677261613692E11   -3.056105336248908E1   6.441036033377125E1  -1.018019120364942E1   1.101000152037530E1  -1.023323135109846E1  -2.046924242942753E1  -2.921065245887435E1   1.001126561326600E2  
 1.597799511002445E11   -2.957123049677515E1  -2.755916290926464E1  -1.023830405945066E1  -3.834796281118294E1  -1.028110324877701E1  -6.988939833843129E1  -2.556432863783881E1   1.975332002896543E1  
 1.597921760391198E11   -3.401356835164183E1  -6.051771796628091E1  -1.045454679488083E1  -8.508840337584962E1  -1.051406566858087E1  -1.164891242050113E2  -2.313679980076097E1  -3.971783067634839E1  
 1.598044009779951E11   -2.727495350522077E1  -1.600234740523843E1  -1.017502646207222E1  -1.312005276130821E2  -1.022092664014170E1  -1.629794923038282E2  -2.602795395551462E1  -8.635204417919690E1  
 1.598166259168704E11   -2.200711622383715E1  -5.264759719254783E1  -1.000210847416238E1   1.794689633116071E2  -1.006289684884817E1   1.476414818922936E2  -3.595662343838779E1  -1.022203786666101E2  
 1.598288508557457E11   -2.098372343688988E1  -9.063006341451195E1  -1.026746699966748E1   1.305857993379006E2  -1.032734528401065E1   9.857754327402800E1  -3.043689866926744E1  -1.414163369584801E1  
 1.598410757946210E11   -2.336856974927712E1  -1.342409859967063E2  -1.061689790697281E1   8.478226899418222E1  -1.066329272620065E1   5.284014620993415E1  -2.588015144763747E1  -5.391947262595618E1  
 1.598533007334963E11   -3.575184726964970E1  -1.587106332852910E2  -1.030779708603833E1   3.873734627164884E1  -1.035224581745344E1   6.610795650443241  -3.125866608373578E1  -6.771036661983740E1  
 1.598655256723716E11   -3.075224796814587E1  -6.646476289430876E1  -1.018410088388854E1  -1.098042039182035E1  -1.019695761061935E1  -4.244065116828866E1  -2.773438348382268E1  -2.234382077991180E1  
 1.598777506112470E11   -2.615024455647722E1  -9.873687684309194E1  -1.058223754609688E1  -5.943667787060448E1  -1.061706657276207E1  -9.126027842712861E1  -2.179555269087013E1  -3.975339025379851E1  
 1.598899755501223E11   -2.943436520650541E1  -1.488915988568722E2  -1.076926186247786E1  -1.034510610620262E2  -1.079160367949173E1  -1.352736779004741E2  -2.049095165375322E1  -7.815334172885733E1  
 1.599022004889976E11   -4.034659664054848E1  -3.774636046556523E1  -1.034772587891678E1  -1.503305239005237E2  -1.037152613925206E1   1.778166491820943E2  -2.361434044862386E1  -9.978494134300880E1  
 1.599144254278729E11   -3.056766632307504E1  -7.880903280510100E1  -1.026669043682022E1   1.602145525619844E2  -1.030065331138517E1   1.282670392418632E2  -2.539816791389186E1  -8.762434801851136E1  
 1.599266503667482E11   -3.262984120154292E1  -1.385657579271075E2  -1.061368133060815E1   1.125974898332312E2  -1.065397429262884E1   8.059530703304563E1  -2.146256167368762E1  -8.965622151104353E1  
 1.599388753056235E11   -3.066983345376163E1   6.288005669890248E1  -1.061516888385043E1   6.723946998540652E1  -1.064390418905840E1   3.524024594368220E1  -1.989749777070734E1  -1.275027665905862E2  
 1.599511002444988E11   -2.249315507192556E1  -4.620285309167367  -1.035626177806293E1   1.979498352997882E1  -1.036989802615522E1  -1.215571216569078E1  -2.206952896997836E1  -1.700392790340938E2  
 1.599633251833741E11   -2.023949834959734E1  -5.088119609874247E1  -1.037142407731114E1  -2.897838432963980E1  -1.041475746457502E1  -6.083920914178148E1  -2.806663637392857E1   1.358784287907155E2  
 1.599755501222494E11   -2.198419324221998E1  -8.940889428943530E1  -1.061763015553393E1  -7.558388817487474E1  -1.065733781145312E1  -1.077689999346429E2  -3.597583388232999E1  -3.086609141722691E1  
 1.599877750611247E11   -2.804966137450595E1  -8.538106002338715E1  -1.039325801773074E1  -1.216123254479773E2  -1.041952347613082E1  -1.537559138115411E2  -3.101156497471975E1  -1.269391032991216E2  
 1.600000000000000E11   -2.389957872351892E1  -5.799598677809278E1  -1.018163253685937E1  -1.706370698005753E2  -1.023542888514385E1   1.577123916382381E2  -3.444556042922227E1   1.616179823042468E2  
 1.600122249388753E11   -2.055976473892980E1  -7.932909754664965E1  -1.036089799193924E1   1.404885599840768E2  -1.038981493952788E1   1.084305416037481E2  -3.329199509116292E1   4.617068490528826E1  
 1.600244498777506E11   -2.093252898970333E1  -1.090170010109290E2  -1.065893839736275E1   9.432894660271887E1  -1.071024191786989E1   6.243589872726333E1  -2.983706038201135E1  -3.712802577162240E1  
 1.600366748166259E11   -2.500992648263210E1  -1.179603303605891E2  -1.043006178266750E1   4.838028453654112E1  -1.046528696328362E1   1.654144235667016E1  -3.677262043605123E1  -8.674877429845039E1  
 1.600488997555012E11   -2.512607495915155E1  -1.008068880127882E2  -1.026684255537549E1  -7.474934004060088E-1  -1.031333183511792E1  -3.236656117886910E1  -3.508381367709175E1  -3.142438419042271E-2  
 1.600611246943765E11   -2.294528808936125E1  -1.103564655042292E2  -1.050098611950839E1  -4.881208996179853E1  -1.057707716415692E1  -8.085124661496485E1  -2.718887651063860E1  -3.270806280993133E1  
 1.600733496332518E11   -2.529602205628095E1  -1.364203302915214E2  -1.058312900911457E1  -9.467246987267593E1  -1.064877774300146E1  -1.262867485707442E2  -2.694892622385156E1  -8.892657260908010E1  
 1.600855745721271E11   -3.193462607678187E1  -9.629368702814523E1  -1.033474182204085E1  -1.423164108443381E2  -1.037439249043811E1  -1.734187473195218E2  -3.634982652313318E1  -1.665700780465293E2  
 1.600977995110024E11   -2.381676274174490E1  -7.641779069219457E1  -1.032734953045370E1   1.679080249813715E2  -1.036124270453668E1   1.375528637273639E2  -3.025858044049927E1   3.749958127447945E1  
 1.601100244498778E11   -2.053497705114499E1  -1.028948890983630E2  -1.067575865874982E1   1.198988589568606E2  -1.072257007791237E1   8.906483972166110E1  -2.410914498713341E1  -1.603434983108542E1  
 1.601222493887531E11   -2.221890012554280E1  -1.285133823733825E2  -1.072887587735072E1   7.559056261218447E1  -1.077712413644344E1   4.439851731514852E1  -2.490561493891309E1  -6.635718424904725E1  
 1.601344743276284E11   -2.490208300514489E1  -1.197241127426855E2  -1.044402598654456E1   2.768614000293253E1  -1.049507792641396E1  -3.523807619850446  -3.359511919845441E1  -7.075873717591122E1  
 1.601466992665037E11   -2.239257331560089E1  -1.108130099760051E2  -1.056044369476853E1  -2.144904072180356E1  -1.060304102263991E1  -5.228267559974048E1  -2.774940883323169E1  -2.184476221129368E1  
 1.601589242053790E11   -2.018475427128516E1  -1.271654467209857E2  -1.092082482313181E1  -6.806369789298771E1  -1.098363252667558E1  -9.911397807253734E1  -2.351010206504678E1  -5.476649661945888E1  
 1.601711491442543E11   -2.157331862503743E1  -1.468954885924170E2  -1.078278959225614E1  -1.134702414389130E2  -1.084369127514833E1  -1.446444217720239E2  -2.627613949719789E1  -9.973868132335625E1  
 1.601833740831296E11   -2.300780996943523E1  -1.433288834008989E2  -1.060889887522127E1  -1.615948092120439E2  -1.066246177844567E1   1.673430177782583E2  -4.253532405938417E1  -8.757189777189863E1  
 1.601955990220049E11   -2.145059701957150E1  -1.441220180382258E2  -1.079271555726578E1   1.496448149023461E2  -1.083195330289955E1   1.186556945404536E2  -2.806336261364611E1  -1.435253416328793E1  
 1.602078239608802E11   -2.033744622981209E1  -1.666794896100628E2  -1.106180879002028E1   1.039335368513501E2  -1.111654021577888E1   7.319084498380116E1  -2.426875079120621E1  -5.919992238460112E1  
 1.602200488997555E11   -2.333247880083791E1   1.675958602226764E2  -1.082780838409366E1   5.812059518410770E1  -1.086998643986268E1   2.777046588619575E1  -2.996188163212490E1  -1.111558641100720E2  
 1.602322738386308E11   -3.024930490256945E1   1.779855855010842E2  -1.066893661933498E1   1.038475125536507E1  -1.073170156594898E1  -2.075643393204961E1  -3.228866147285398E1   4.262366959658095E1  
 1.602444987775061E11   -2.621062539588881E1  -1.451236307410273E2  -1.082339874634153E1  -3.734589378953381E1  -1.087904156202640E1  -6.813150397833444E1  -2.223391949368950E1  -3.127173283632541  
 1.602567237163814E11   -2.440896733010257E1  -1.741931561707128E2  -1.080061289334491E1  -8.244791669803607E1  -1.085920297266666E1  -1.134838780324442E2  -2.052296613687229E1  -4.586775027814992E1  
 1.602689486552567E11   -3.002813289974994E1   1.764561379689583E2  -1.045571585852002E1  -1.300221891576339E2  -1.050897455216572E1  -1.609007839818142E2  -2.341174667106696E1  -6.946507767810637E1  
 1.602811735941320E11   -2.887981492142054E1  -1.340401517737595E2  -1.039938326791497E1  -1.795840917012260E2  -1.044475967082749E1   1.499904098759174E2  -2.599649793411454E1  -5.326541076846373E1  
 1.602933985330073E11   -2.308267042447307E1  -1.453274575582489E2  -1.067231365425004E1   1.326110238017431E2  -1.073420572382778E1   1.017183173909169E2  -2.162131894977406E1  -4.808381132660081E1  
 1.603056234718826E11   -2.274214648403655E1  -1.785959553725002E2  -1.064458300433169E1   8.699010166354206E1  -1.071039957923651E1   5.691033883033663E1  -2.032091608132703E1  -7.979349398790109E1  
 1.603178484107579E11   -2.754268887885684E1   1.725528759653031E2  -1.035125971531445E1   3.957785855939102E1  -1.042077172022345E1   8.711093051176015  -2.388807557618718E1  -1.034769631875148E2  
 1.603300733496332E11   -2.587415048998229E1  -1.542652064356265E2  -1.039607735835440E1  -9.446577429820904  -1.043845720317463E1  -4.053381098628638E1  -2.919246139382710E1  -8.130677767785375E1  
 1.603422982885085E11   -2.106044361826068E1  -1.739945432496343E2  -1.067187913685862E1  -5.646507806239492E1  -1.070281128864704E1  -8.760270345023572E1  -2.400755469458686E1  -6.485406476455361E1  
 1.603545232273839E11   -2.077392037223655E1   1.469837846187475E2  -1.055007608545546E1  -1.022521375913710E2  -1.060160955821898E1  -1.327790520520098E2  -2.369743032169039E1  -9.894606939821145E1  
 1.603667481662592E11   -2.470547564183806E1   1.084868932355159E2  -1.032544882699374E1  -1.501726436174701E2  -1.034775912830538E1   1.786673921817204E2  -3.376052269131312E1  -1.055344783020165E2  
 1.603789731051345E11   -3.793203995335776E1   5.744345966316060E1  -1.041308418900340E1   1.614063034665457E2  -1.048268255994162E1   1.301505620690790E2  -2.554054126321632E1  -2.817268410440548E1  
 1.603911980440098E11   -3.164079070270705E1  -1.542166542551126E2  -1.057318967305292E1   1.152604269656316E2  -1.061294955186420E1   8.401767359023521E1  -2.020742541636502E1  -6.256872119095733E1  
 1.604034229828851E11   -3.163323602366090E1   1.689150895873525E2  -1.032066542166647E1   6.847672392841908E1  -1.036676318010160E1   3.722370089192948E1  -2.098320685536381E1  -9.761508947630856E1  
 1.604156479217604E11   -3.423874787140927E1  -1.442738987531234E2  -1.021053998857919E1   1.927120603523369E1  -1.025124827326921E1  -1.160236352634077E1  -2.597585701266532E1  -1.137797951683662E2  
 1.604278728606357E11   -2.569058619178897E1  -1.396810393792274E2  -1.040331825325999E1  -2.904016953554971E1  -1.046373332114715E1  -5.999879956620171E1  -2.706162614321178E1  -7.446148885229965E1  
 1.604400977995110E11   -2.228282304086891E1  -1.759053648210333E2  -1.045121533406010E1  -7.465087735429118E1  -1.047885593011794E1  -1.060697424565346E2  -2.339296904613677E1  -9.292373433495104E1  
 1.604523227383863E11   -2.369189685362488E1   1.495971248727856E2  -1.022512514794800E1  -1.225167282195610E2  -1.025106212858496E1  -1.532150473589956E2  -2.710766443863145E1  -1.204316697298965E2  
 1.604645476772616E11   -2.904111823615292E1   1.392428007517066E2  -1.021240983187700E1  -1.711003314686310E2  -1.025661677888806E1   1.578449228815408E2  -3.453402435178015E1  -4.805578785298812E1  
 1.604767726161369E11   -2.829176939408591E1   1.771611725147492E2  -1.043430542364943E1   1.415926632179923E2  -1.050584708946992E1   1.102746841493194E2  -2.333529987781276E1  -4.557263275377216E1  
 1.604889975550122E11   -2.481474059232122E1   1.515733960353518E2  -1.038129199730297E1   9.562820650286031E1  -1.039438813003752E1   6.389292391661459E1  -2.129792425536811E1  -8.116906449523103E1  
 1.605012224938875E11   -2.859321596939181E1   1.254084634265800E2  -1.024390116130471E1   4.721280583485225E1  -1.026870686034008E1   1.570630763744477E1  -2.460024237336565E1  -1.017239612703997E2  
 1.605134474327628E11   -3.324163121701988E1   1.762933297092153E2  -1.033292043266709E1  -1.229451787227965  -1.038198318599196E1  -3.291106740659045E1  -2.684277679064941E1  -6.740491965991961E1  
 1.605256723716381E11   -2.424223120504692E1   1.717393055301183E2  -1.051422989104658E1  -4.758094354911889E1  -1.057271267284644E1  -7.948571494330074E1  -2.067379010290192E1  -7.161100808152696E1  
 1.605378973105134E11   -2.336979468933031E1   1.333460771718076E2  -1.033143955018294E1  -9.436307675075342E1  -1.038458371771326E1  -1.258526012859823E2  -1.965123076055950E1  -1.048026667266446E2  
 1.605501222493887E11   -2.780896936962308E1   1.076043683794605E2  -1.022167331038885E1  -1.427312553967805E2  -1.026522084574338E1  -1.745394708675566E2  -2.312384767165208E1  -1.343755188882700E2  
 1.605623471882640E11   -3.223856153830486E1   1.613438989947204E2  -1.038742457222850E1   1.684275908250829E2  -1.042509433142878E1   1.369739975408168E2  -3.403738649670932E1  -1.005140211947026E2  
 1.605745721271393E11   -2.323898234327681E1   1.551142705374237E2  -1.063144929371446E1   1.223381250338463E2  -1.066744371423040E1   9.051595627358620E1  -2.276794470377004E1  -6.840448404738675E1  
 1.605867970660147E11   -2.171380626592011E1   1.130752602483101E2  -1.043747779631858E1   7.566384973707272E1  -1.047839588450032E1   4.441660749817653E1  -2.041396357925806E1  -1.055461441545164E2  
 1.605990220048900E11   -2.484108913871062E1   7.392726011419202E1  -1.035698777014535E1   2.695720933824230E1  -1.039022304674590E1  -3.826294716244866  -2.381413877483239E1  -1.353341072592621E2  
 1.606112469437653E11   -4.131542439717322E1   5.397875398179533E1  -1.052469619734376E1  -2.094522454759352E1  -1.056569496638760E1  -5.185885945831566E1  -3.013369182275732E1  -1.003671095831059E2  
 1.606234718826406E11   -2.552799015737133E1   1.534734878005522E2  -1.060057946194373E1  -6.633176004768481E1  -1.063135307617334E1  -9.833852718865026E1  -2.300126943542526E1  -9.638298933940470E1  
 1.606356968215159E11   -2.188435593129911E1   1.103430813039395E2  -1.040167001041053E1  -1.142642974679928E2  -1.044834178727602E1  -1.454590084840571E2  -2.321669930056497E1  -1.357211279019641E2  
 1.606479217603912E11   -2.255444158580270E1   7.368385107784246E1  -1.048110290659773E1  -1.630941210169263E2  -1.052255726315862E1   1.655538484234826E2  -3.495998862319903E1   1.672072941809599E2  
 1.606601466992665E11   -2.717739820501576E1   5.637529119032792E1  -1.073459147993853E1   1.503316529379430E2  -1.075679415162892E1   1.194777769452535E2  -2.468936704487235E1  -2.769555918607542E1  
 1.606723716381418E11   -2.609931769644136E1   6.705469279316925E1  -1.056399224490968E1   1.044788572758580E2  -1.058913247648547E1   7.331033847824274E1  -1.923608629256415E1  -7.289970095916085E1  
 1.606845965770171E11   -2.577580847921417E1   3.596594624498034E1  -1.035134539053350E1   5.681814854568684E1  -1.042269402411856E1   2.496168317074947E1  -1.920324719188621E1  -1.076046742791140E2  
 1.606968215158924E11   -3.117103389236561E1  -1.629457447177964  -1.042162799070036E1   7.309774558183228  -1.045194701150717E1  -2.362715123308481E1  -2.253387212705878E1  -1.243832841110699E2  
 1.607090464547677E11   -3.501215349949638E1   1.459546132994439E2  -1.065483936273184E1  -3.975722069987257E1  -1.071227980867758E1  -7.131564725759201E1  -2.224911992639583E1  -1.024714502470354E2  
 1.607212713936430E11   -2.323697388564698E1   8.713606419984019E1  -1.067851922467711E1  -8.653934337909345E1  -1.072870347249496E1  -1.178352474126081E2  -1.831620079050988E1  -1.216273923368269E2  
 1.607334963325183E11   -2.024289051053875E1   3.902382030257193E1  -1.071360980037460E1  -1.335957025852932E2  -1.078882704171500E1  -1.658464314086459E2  -1.803360436771892E1  -1.576679265638942E2  
 1.607457212713937E11   -2.005541834182688E1  -8.512659837578347  -1.090073480185699E1   1.795961639400400E2  -1.093441281543024E1   1.480834873473627E2  -2.130439722417282E1   1.639261261821578E2  
 1.607579462102690E11   -2.310547361444945E1  -5.547371315703790E1  -1.073458871181658E1   1.346675192901202E2  -1.081390240190949E1   1.033400715569442E2  -2.871769416754223E1   1.397777167136015E2  
 1.607701711491443E11   -2.998843193346715E1  -8.586675171583023E1  -1.040708077517741E1   8.668489546565580E1  -1.045302223890439E1   5.518675193868030E1  -3.833004838077867E1   1.412899449844012E2  
 1.607823960880196E11   -3.454276530064806E1  -4.852963432214933E1  -1.036992204592198E1   3.824164992542433E1  -1.041243667291732E1   6.040709191237859  -4.881418720096942E1   1.413324308747827E2  
 1.607946210268949E11   -2.840439364390276E1  -5.845769447942647E1  -1.056260189877866E1  -9.895670964980964  -1.061118749717096E1  -4.145305893402706E1  -3.419803759726919E1  -6.201540537824686  
 1.608068459657702E11   -2.780883451145830E1  -1.092141170479693E2  -1.051106644725943E1  -5.560446112311870E1  -1.057987118202326E1  -8.697437221051121E1  -2.756704972933374E1  -5.163232498484948E1  
 1.608190709046455E11   -3.182943843263975E1  -1.440687808419151E2  -1.029081885869006E1  -1.041963558152107E2  -1.037090998760330E1  -1.351373272547069E2  -2.716207543955671E1  -7.590927738393916E1  
 1.608312958435208E11   -3.379773722917626E1  -1.469034852109044E2  -1.035374893694423E1  -1.527435622076921E2  -1.040108725883300E1   1.760065680987676E2  -2.816259506181513E1  -7.393372752911864E1  
 1.608435207823961E11   -2.960760066370778E1  -1.610218828463137E2  -1.057084383048233E1   1.599222774669687E2  -1.062135173339963E1   1.291590642769252E2  -2.395913940099606E1  -6.575841662528899E1  
 1.608557457212714E11   -2.581410865126477E1   1.444404656091876E2  -1.039272517361139E1   1.139905846653211E2  -1.044476359721366E1   8.263288704222960E1  -2.148416685342281E1  -9.271823997262335E1  
 1.608679706601467E11   -2.508414028207032E1   8.930579163188062E1  -1.024308359754089E1   6.551877419105863E1  -1.031642438349675E1   3.423776814120991E1  -2.269983081718861E1  -1.217544559677065E2  
 1.608801955990220E11   -2.488129592582488E1   4.012548708480803E1  -1.043646629908107E1   1.660121656980576E1  -1.047758434088782E1  -1.446393765289733E1  -2.990737430384677E1  -1.336393248021616E2  
 1.608924205378973E11   -2.647109892986294E1  -8.104253976256583  -1.072293448911399E1  -2.986948766932760E1  -1.078854531811129E1  -6.060987292913779E1  -2.634322829343852E1  -6.401643475568281E1  
 1.609046454767726E11   -3.013301193634067E1  -1.762482935920636E1  -1.050762917183117E1  -7.571049300332011E1  -1.057371048419932E1  -1.067733709330653E2  -2.181508270326187E1  -8.823297681177733E1  
 1.609168704156479E11   -2.685860697793476E1  -3.201501495402026E1  -1.037229498415433E1  -1.244678325778886E2  -1.045079979127158E1  -1.548944339207909E2  -2.184672621700496E1  -1.095121528906017E2  
 1.609290953545232E11   -2.504227817041602E1  -7.170464298489151E1  -1.056675105378498E1  -1.714792325621122E2  -1.063133972889393E1   1.570073887967029E2  -2.432349685132629E1  -1.083747687158150E2  
 1.609413202933985E11   -2.795102821724516E1  -1.314768970020913E2  -1.049716367128120E1   1.425874468371324E2  -1.057026264487526E1   1.111990643781564E2  -2.107396435344054E1  -9.895341692067105E1  
 1.609535452322738E11   -3.772963268793773E1   6.996021407463560E1  -1.022268320121055E1   9.405414908491920E1  -1.029694837163442E1   6.297785962645791E1  -1.911006562610461E1  -1.184271576994248E2  
 1.609657701711491E11   -2.523831741191551E1  -2.584265262166392E1  -1.028131167180827E1   4.486024661935429E1  -1.034903180347599E1   1.393891281701791E1  -1.926820707875298E1  -1.414616908775240E2  
 1.609779951100244E11   -2.093535775204259E1  -7.827850000443313E1  -1.060782355530005E1  -2.652900307875531  -1.068249541252462E1  -3.374856152353978E1  -2.251115071995961E1  -1.580791776922257E2  
 1.609902200488998E11   -2.077124188803387E1  -1.300170624786036E2  -1.059164792530813E1  -4.765982330468209E1  -1.068829827862476E1  -7.903144438411833E1  -2.382937574872621E1  -1.420564847708071E2  
 1.610024449877751E11   -2.496372316121627E1  -1.700779626615608E2  -1.038022921767510E1  -9.646880179652604E1  -1.042915450888341E1  -1.274161382156499E2  -2.286606332310489E1  -1.521235364766610E2  
 1.610146699266504E11   -3.490341392217539E1  -1.512899684978848E2  -1.054329447694014E1  -1.453994238564571E2  -1.061860275292540E1  -1.762696362016040E2  -2.507223568663430E1  -1.666517248847598E2  
 1.610268948655257E11   -2.494169216150442E1  -1.220695071616220E2  -1.094173959353662E1   1.687339985508809E2  -1.101212331837814E1   1.387964177947652E2  -2.956982469211602E1  -1.316391495820167E2  
 1.610391198044010E11   -2.234584079980832E1  -1.700836617365318E2  -1.064304944018561E1   1.239562292674079E2  -1.066540358635750E1   9.387350481047352E1  -2.291113712819614E1  -1.284820610096805E2  
 1.610513447432763E11   -2.572647679702921E1   1.483850095604755E2  -1.029905181523201E1   7.490772643060976E1  -1.034786633787821E1   4.508560655125496E1  -2.209044447813710E1  -1.524840947414843E2  
 1.610635696821516E11   -3.718179137204614E1   1.483368752498710E2  -1.037616580482162E1   2.580937210455208E1  -1.044611594885338E1  -4.344026852543107  -2.455179308415913E1  -1.720017261038114E2  
 1.610757946210269E11   -2.690536545097481E1  -1.541948098280564E2  -1.065120859150809E1  -2.055213992604881E1  -1.072670880281312E1  -5.066075728649423E1  -2.960611786000018E1  -1.467206796672800E2  
 1.610880195599022E11   -2.345158515382676E1   1.536567304906590E2  -1.043409004758410E1  -6.594860191088505E1  -1.047394086154988E1  -9.684010995173317E1  -2.358672693751142E1  -1.360887451241684E2  
 1.611002444987775E11   -2.604528225584422E1   1.031240479021897E2  -1.028903284468053E1  -1.150858163179841E2  -1.034842784483689E1  -1.456609578406427E2  -2.222366268983764E1  -1.608178060769238E2  
 1.611124694376528E11   -3.367485185699339E1   2.823532721347832E1  -1.047169213258188E1  -1.634024418025587E2  -1.051632023796339E1   1.660630494133945E2  -2.509279394923343E1   1.790209184056476E2  
 1.611246943765281E11   -3.029703356033711E1  -1.340314300289019E2  -1.062544303075804E1   1.506278444443563E2  -1.066350892374332E1   1.208737556418736E2  -2.780758996330096E1  -1.504473340778553E2  
 1.611369193154034E11   -2.661525464156443E1   1.535574274005267E2  -1.030341015886424E1   1.036808408254422E2  -1.035014521134327E1   7.400221135129495E1  -2.310153949736148E1  -1.556830101732224E2  
 1.611491442542787E11   -2.872584816929409E1   9.282075734139571E1  -1.021139335436636E1   5.501722453245781E1  -1.025818266481400E1   2.471476377993967E1  -2.260431297942268E1   1.781461105017434E2  
 1.611613691931540E11   -3.540372621876333E1  -7.759326571383798E-1  -1.043576292003528E1   7.120072067481980  -1.048194641351028E1  -2.309914980730446E1  -2.695514460223302E1   1.574888934197144E2  
 1.611735941320293E11   -3.359512924443427E1  -1.603453752812625E2  -1.032657362510642E1  -3.905095700210505E1  -1.039278661680689E1  -6.893866228839983E1  -2.881198670936604E1  -1.566736354484012E2  
 1.611858190709046E11   -3.247766294663603E1   1.034627362263200E2  -1.010701453735688E1  -8.695753207536292E1  -1.014503123823151E1  -1.173198213884725E2  -2.370226233789168E1  -1.617459448901015E2  
 1.611980440097799E11   -3.004901087373756E1   7.723004230534182  -1.021623234424498E1  -1.364915534824270E2  -1.023226707488365E1  -1.664479994445987E2  -2.186419552962517E1   1.735442326802771E2  
 1.612102689486553E11   -2.498883437461240E1  -6.399661509962091E1  -1.047401557307964E1   1.767344765505142E2  -1.054844060353693E1   1.459870715268491E2  -2.334415506918804E1   1.472428459499548E2  
 1.612224938875306E11   -2.359722780806404E1  -1.194510453792098E2  -1.035126758122213E1   1.305784281275811E2  -1.039556409999493E1   1.005616738676103E2  -2.572630295168827E1   1.419833305696355E2  
 1.612347188264059E11   -2.534910800300957E1  -1.484962838735267E2  -1.016610427965717E1   8.175036917291477E1  -1.021536709279163E1   5.169742096727894E1  -2.668380428691322E1   1.299664173412460E2  
 1.612469437652812E11   -2.641439319133883E1  -1.469898183811757E2  -1.031484117725195E1   3.318456682170606E1  -1.038051605197417E1   3.051533759649718  -2.877563425433324E1   1.089991547661413E2  
 1.612591687041565E11   -2.260488160872441E1  -1.514283115396403E2  -1.055288832989450E1  -1.354277297281364E1  -1.060029502230555E1  -4.355990490733203E1  -4.046071091166854E1   5.062505789403735E1  
 1.612713936430318E11   -2.110437379707654E1   1.762721768091939E2  -1.036575959099352E1  -6.040026227191749E1  -1.039804022992825E1  -9.053934717963433E1  -3.213940472994383E1  -1.414407480752625E2  
 1.612836185819071E11   -2.354017010798289E1   1.497030371512314E2  -1.029269749447001E1  -1.094092078822896E2  -1.034588779053583E1  -1.392139340116455E2  -2.762133618511709E1  -1.787068303769384E2  
 1.612958435207824E11   -2.845388898500965E1   1.560048391034763E2  -1.055078294128467E1  -1.575375454479039E2  -1.062510215715879E1   1.722038666035632E2  -2.746131782006637E1   1.479664287153594E2  
 1.613080684596577E11   -2.387485323012794E1  -1.777200954142112E2  -1.074089131248933E1   1.567078629273200E2  -1.081526975494704E1   1.261752998025140E2  -3.289503117271273E1   1.403630003438263E2  
 1.613202933985330E11   -2.107126207133991E1   1.515409275373736E2  -1.057211693651734E1   1.101175224485360E2  -1.059291429075678E1   7.893872044377025E1  -2.938385814222638E1   1.628116748998962E2  
 1.613325183374083E11   -2.273313462599342E1   1.190379348029719E2  -1.061600149112665E1   6.099718821095916E1  -1.067739701117470E1   3.007329271653788E1  -2.705056691872433E1   1.417840071591404E2  
 1.613447432762836E11   -3.171695609384651E1   9.825925974587845E1  -1.101004846818219E1   1.398626480219091E1  -1.104298643177789E1  -1.680946718504109E1  -2.851442900023556E1   1.037760727335410E2  
 1.613569682151589E11   -2.670947021532342E1  -1.736124610439374E2  -1.098978705738510E1  -3.072431642012256E1  -1.098806117232073E1  -6.117975977150606E1  -3.953317426424633E1   1.296294718833671E2  
 1.613691931540342E11   -2.204599108160803E1   1.552132761576860E2  -1.061559931683438E1  -7.825013873293112E1  -1.067455224716435E1  -1.087382679765565E2  -2.832931726573549E1   1.449083209900459E2  
 1.613814180929096E11   -2.268542723589572E1   1.286241314616061E2  -1.064564731820954E1  -1.274277567191592E2  -1.072147750857410E1  -1.579105201516256E2  -2.513672798238937E1   1.026526923431051E2  
 1.613936430317849E11   -2.695541135410080E1   1.330158946668676E2  -1.094721342202081E1  -1.736272516507316E2  -1.098913599556329E1   1.545124545445249E2  -2.568140580255079E1   4.866205497880309E1  
 1.614058679706602E11   -2.277151208543110E1   1.487837797638832E2  -1.069280755605568E1   1.405155898493146E2  -1.073510828815978E1   1.090934404185838E2  -3.253759180511989E1  -9.106242859664253  
 1.614180929095355E11   -2.149931492501341E1   1.292418935646342E2  -1.051010792919155E1   9.173995340931788E1  -1.052668338389515E1   5.974031805832041E1  -4.730787084268653E1   6.994458222731730E1  
 1.614303178484108E11   -2.242100305844231E1   1.174849612688030E2  -1.075673120700734E1   4.254964010796013E1  -1.078646473111886E1   1.061589714936851E1  -3.148562559083921E1   4.817431763568907E1  
 1.614425427872861E11   -2.275989146669224E1   1.282875586789531E2  -1.109373191976218E1  -2.856480514492244  -1.112001209855928E1  -3.489807598052505E1  -2.645141859948765E1  -1.684784976721269E1  
 1.614547677261614E11   -1.898779344153782E1   1.174794931427514E2  -1.087494705609004E1  -4.916763537407967E1  -1.092673059298346E1  -8.084358561921822E1  -2.552477718081113E1  -8.437072341000201E1  
 1.614669926650367E11   -1.832511852851438E1   8.726071480015531E1  -1.077376011043369E1  -9.755252151421539E1  -1.082639009638934E1  -1.299644742800331E2  -2.614439678962924E1  -1.433803994763882E2  
 1.614792176039120E11   -2.078773953183942E1   5.640456214059626E1  -1.102788751038571E1  -1.455219966100875E2  -1.109991483904119E1  -1.776971642865940E2  -2.907985841650388E1   1.535050562192653E2  
 1.614914425427873E11   -2.896954352681805E1   5.156453266092572E1  -1.102718187801042E1   1.694152598345002E2  -1.108702335954822E1   1.372694756677835E2  -4.099822960461624E1   1.122688995831315E2  
 1.615036674816626E11   -2.700951511016434E1   8.378837114919040E1  -1.070676004415262E1   1.216417261459570E2  -1.075256588569816E1   8.908446163662140E1  -3.946676255573553E1   1.510844830553618E2  
 1.615158924205379E11   -2.799995036317830E1   5.702529972887322E1  -1.082219217801861E1   7.251842889650001E1  -1.089005222088595E1   3.964582641462962E1  -3.687594605134633E1   1.132617586515148E2  
 1.615281173594132E11   -3.955903464785205E1  -4.418615067922035E1  -1.126658477858090E1   2.549423253110358E1  -1.133790562253713E1  -7.454879671393092  -3.184328467996679E1   3.359831109086907E1  
 1.615403422982885E11   -2.379004627006583E1  -1.753501925505427E2  -1.129488113478915E1  -1.828984899228778E1  -1.130992250038803E1  -5.148713711253627E1  -2.787852394767103E1  -5.455727561015233E1  
 1.615525672371638E11   -1.979030876384723E1   1.413375697408415E2  -1.091907853197926E1  -6.575423649975926E1  -1.095145222823866E1  -9.883030618388338E1  -2.697385866750416E1  -1.262489667848918E2  
 1.615647921760391E11   -2.015311860477682E1   1.140778537081564E2  -1.090666334925427E1  -1.148044020868571E2  -1.094689696132480E1  -1.475664769051493E2  -2.842872573840157E1   1.623257144946690E2  
 1.615770171149144E11   -2.231523442838867E1   1.207269265539799E2  -1.114636483026011E1  -1.613780261839889E2  -1.119429222522461E1   1.659154863384965E2  -3.099879873749712E1   4.981196263454998E1  
 1.615892420537897E11   -1.753275711840320E1   1.261482251931560E2  -1.089891532170135E1   1.528372839472019E2  -1.094208867693308E1   1.199868820477120E2  -2.682386319225606E1  -6.354885366709729E1  
 1.616014669926650E11   -1.481436919434573E1   1.008227033793091E2  -1.071897347210744E1   1.043205050237696E2  -1.076379778255707E1   7.127444646838123E1  -2.364324781747781E1  -1.305818837795620E2  
 1.616136919315403E11   -1.471379094379197E1   7.422737296640337E1  -1.088306835167324E1   5.579187770441747E1  -1.091954564373174E1   2.278736352384550E1  -2.369767079933609E1   1.660861404781395E2  
 1.616259168704157E11   -1.709141578054630E1   5.549332978137276E1  -1.100083384496583E1   1.070379628033581E1  -1.106536209130179E1  -2.293982669212116E1  -2.922467365527782E1   9.856584715961927E1  
 1.616381418092910E11   -1.806732782213891E1   6.261785193427301E1  -1.058773289711023E1  -3.614170251508661E1  -1.063902369929521E1  -6.972144161730967E1  -3.925042563740811E1  -1.067668683519455E1  
 1.616503667481663E11   -1.622860129880949E1   5.279902841320851E1  -1.056509662128466E1  -8.594036365152948E1  -1.061550789957617E1  -1.196077239658734E2  -3.146745360592189E1  -1.146047226746575E2  
 1.616625916870416E11   -1.609274017159317E1   2.918700642664266E1  -1.089789299681886E1  -1.340050961996850E2  -1.093469272247164E1  -1.669710625265828E2  -3.096611178045935E1  -1.615283566597421E2  
 1.616748166259169E11   -1.935750651464613E1   3.598270743263872  -1.091915226892098E1  -1.787140018018879E2  -1.097396689673215E1   1.487171807004321E2  -2.972007973520721E1  -1.491812316633655E2  
 1.616870415647922E11   -2.543020993545999E1   1.594275228940173E1  -1.050237382170407E1   1.333898434202930E2  -1.052367628393543E1   1.011383942063952E2  -2.578635166135094E1  -1.766977452751055E2  
 1.616992665036675E11   -2.261677020157509E1   3.864412104681190E1  -1.046007587249821E1   8.373913464118829E1  -1.053000549460199E1   5.146238772704576E1  -2.529854182080961E1   1.542912359322724E2  
 1.617114914425428E11   -2.130335403177908E1   1.796506378964066E1  -1.079604766558100E1   3.633315954272425E1  -1.084438639381122E1   3.724603373569703  -2.808504360566633E1   1.203695653132235E2  
 1.617237163814181E11   -2.600877090256351E1  -4.934289688216509  -1.071991439815779E1  -9.157344630259978  -1.074496075250056E1  -4.141321162275042E1  -3.441230937894076E1   1.729821071078437E2  
 1.617359413202934E11   -2.935893835592731E1   5.647954549543951E1  -1.042051398974087E1  -5.772539451556648E1  -1.047861606034753E1  -8.954986263620238E1  -2.575702846804060E1   1.641814281552020E2  
 1.617481662591687E11   -2.228527577081563E1   5.396858801456997E1  -1.057911999624158E1  -1.072999585309006E2  -1.063222081541461E1  -1.395627268935572E2  -2.360146807071420E1   1.347262295150031E2  
 1.617603911980440E11   -2.064690478751733E1   2.106298330051631E1  -1.098571550927306E1  -1.534537299083071E2  -1.103972843979464E1   1.741275919123892E2  -2.591108942694907E1   9.896682265981475E1  
 1.617726161369193E11   -2.486827411574096E1  -3.255365477934986  -1.068593502782121E1   1.612477749149105E2  -1.071617869919582E1   1.294589407442377E2  -2.979788270526538E1   1.406548340826350E2  
 1.617848410757946E11   -2.932835183844446E1   2.835805010111383E1  -1.039765515833274E1   1.121006265627518E2  -1.044344939909307E1   8.042444753838463E1  -2.342096629630240E1   1.308952174101445E2  
 1.617970660146699E11   -2.471185834515642E1   4.222647289256864E1  -1.062156731357842E1   6.232663160857266E1  -1.066581650249752E1   3.082973383223105E1  -2.129937726565539E1   1.026094215132506E2  
 1.618092909535452E11   -2.348997235813112E1   1.538137114104763E1  -1.098999082726429E1   1.612883656107496E1  -1.104147383115168E1  -1.502747512236085E1  -2.273081141125043E1   6.621819468756152E1  
 1.618215158924205E11   -2.768083669694433E1   7.815541667049108  -1.064980813312334E1  -2.978063697070949E1  -1.070324807701197E1  -6.077889804153752E1  -2.936583782371633E1   7.453157993776159E1  
 1.618337408312958E11   -2.859229076184102E1   2.690554738399457E1  -1.055281769426339E1  -7.935321387196647E1  -1.060648298125046E1  -1.102577413767037E2  -2.444232925833511E1   9.603458094214611E1  
 1.618459657701711E11   -2.716425081182342E1   2.522378046175740E1  -1.098109396873680E1  -1.277650868266978E2  -1.099697367363785E1  -1.591993862640077E2  -2.114970068046597E1   6.895020531558929E1  
 1.618581907090465E11   -3.401366279712910E1   1.695514944896740E1  -1.113693006654459E1  -1.723025172805575E2  -1.120547180847435E1   1.570076126549105E2  -2.231041563908514E1   2.194683337834143E1  
 1.618704156479218E11   -2.659656349461682E1   8.486219876600673E1  -1.074599078809811E1   1.406046019181859E2  -1.077810826852934E1   1.103172305473480E2  -3.261491536819711E1  -3.070966228601106E1  
 1.618826405867971E11   -2.180339665853276E1   5.672112525418967E1  -1.073648593542516E1   9.116502029373339E1  -1.075387329698776E1   6.066729582883323E1  -2.978415730803121E1   1.363536367510545E2  
 1.618948655256724E11   -2.183331930485441E1   2.165355514718577E1  -1.113430546677201E1   4.433441978011853E1  -1.118584693405789E1   1.359364116172068E1  -2.315812157068966E1   8.575372957529935E1  
 1.619070904645477E11   -3.009739482426354E1   3.623456164897568  -1.096906422319867E1   1.045356711089675E-1  -1.103895571102250E1  -3.121793695290382E1  -2.651593871938858E1   3.911716312080574E1  
 1.619193154034230E11   -2.722409718557426E1   8.359720054335850E1  -1.055125316003411E1  -4.830269221326536E1  -1.061279559082072E1  -7.907188295458676E1  -3.448314689879322E1   1.204852832705425E2  
 1.619315403422983E11   -2.090037920948361E1   7.019927521833976E1  -1.060298088862625E1  -9.858516432268742E1  -1.066784222178052E1  -1.286036224654167E2  -2.200506959966251E1   1.203549515065481E2  
 1.619437652811736E11   -1.917281283106878E1   4.573744453965034E1  -1.108173050053634E1  -1.454573108456951E2  -1.111884821270982E1  -1.756535031463092E2  -1.719928949458785E1   8.623536449902910E1  
 1.619559902200489E11   -1.933453935563269E1   3.853522936521610E1  -1.093429160109733E1   1.694614718473130E2  -1.095519355500347E1   1.400629928858843E2  -1.672898213454627E1   5.181962390451893E1  
 1.619682151589242E11   -1.762937725490638E1   2.677331336486620E1  -1.061374611210194E1   1.213901313094145E2  -1.062319927989034E1   9.126766704260125E1  -1.800582321425114E1   2.940680282478506E1  
 1.619804400977995E11   -1.750268164078519E1   6.531151482921272  -1.068209900611988E1   7.246821460786860E1  -1.071049326977642E1   4.248047631129067E1  -2.018110858163213E1   1.929348684228832E1  
 1.619926650366748E11   -1.910956655888359E1  -1.584129289703975E1  -1.097214777252697E1   2.629632162050955E1  -1.101627720600156E1  -4.200007486171985  -2.025806079122746E1   1.588092172238133E1  
 1.620048899755501E11   -2.437434649264506E1  -1.659176155749102E1  -1.066224557118422E1  -2.045363498233621E1  -1.068063137923095E1  -5.026184790612597E1  -2.190714900664443E1   3.396755068343583  
 1.620171149144254E11   -2.281257465984396E1   1.420168389639906E1  -1.050889339855497E1  -6.966424894644121E1  -1.053326729943009E1  -1.000131295567542E2  -2.363587761580689E1   9.185507762961438  
 1.620293398533007E11   -1.957243008784065E1   1.606422855013069  -1.088320210747808E1  -1.187137498876073E2  -1.090802613811226E1  -1.494949117504631E2  -2.276797347846846E1   1.809496979857020E1  
 1.620415647921760E11   -1.969589177662761E1  -2.529063984050434E1  -1.114116910811161E1  -1.632830688964108E2  -1.115670596986495E1   1.663913580098217E2  -2.083930257081571E1   1.649800699579876  
 1.620537897310513E11   -2.361095895423070E1  -3.775594483274485E1  -1.073012571694932E1   1.502368653454435E2  -1.076772826229319E1   1.199659369960300E2  -2.446081011469640E1  -1.351712975022931E1  
 1.620660146699266E11   -2.488636669363701E1  -2.302167888746317E1  -1.060841644047681E1   1.005317506149780E2  -1.062360991618921E1   6.995947042860844E1  -2.541593077250046E1   1.890175999638318E1  
 1.620782396088019E11   -2.356353546505159E1  -3.188146013476196E1  -1.102762660368502E1   5.182901691313501E1  -1.102998087500476E1   2.118877552465844E1  -2.045656882640725E1   2.008918557935592E1  
 1.620904645476773E11   -2.614927883769195E1  -7.379024040586950E1  -1.121894834321664E1   7.534471345055515  -1.122138142417663E1  -2.352177277227341E1  -1.820885030650922E1  -1.083437974259974E1  
 1.621026894865526E11   -3.507879938852670E1   1.288780055898728E2  -1.089968915283867E1  -3.920734712234128E1  -1.093027818406997E1  -7.023826543054179E1  -2.054249190731627E1  -4.323810617617597E1  
 1.621149144254279E11   -2.300765240865986E1   5.068182874018969E1  -1.092918984599454E1  -8.832707943889784E1  -1.091515460816619E1  -1.188117266054165E2  -2.814933063330684E1  -5.535387820956260E1  
 1.621271393643032E11   -2.059820360481670E1   5.166013812173468  -1.124535268655780E1  -1.345630352576994E2  -1.124739654051222E1  -1.655747944974202E2  -2.628743418325840E1   1.194538912144185E1  
 1.621393643031785E11   -2.428677295144227E1  -2.829014128114296E1  -1.095230342011336E1  -1.789283525933023E2  -1.097079938348149E1   1.490586823962305E2  -2.303788267389786E1  -2.157216382934667E1  
 1.621515892420538E11   -3.034024873693583E1  -1.621317909234772  -1.063441426747825E1   1.324100857593881E2  -1.063960992671297E1   1.000014979600460E2  -2.880408582370905E1  -4.216126746202640E1  
 1.621638141809291E11   -2.511794328687873E1   1.904873866302621E1  -1.078816613859216E1   8.192161389644529E1  -1.080957491760888E1   4.995203401983240E1  -2.976613902333980E1   4.147703640065570E1  
 1.621760391198044E11   -2.354318601436914E1  -7.154755546895909  -1.127702588259347E1   3.576362800304796E1  -1.130458048133945E1   3.865911136487752  -2.028643721354655E1   2.580093675956296E1  
 1.621882640586797E11   -3.104802832778744E1  -8.388084310721279  -1.108495425386149E1  -8.684406628083940  -1.112476766794530E1  -4.077407475696938E1  -1.833323584281158E1  -1.389058445504054E1  
 1.622004889975550E11   -2.420337114236457E1   4.263011981473622E1  -1.081069485276121E1  -5.710273031932678E1  -1.084492427842765E1  -8.901325992739957E1  -2.079113802717480E1  -4.590038808425974E1  
 1.622127139364303E11   -1.901902114053541E1   1.630600508530097E1  -1.103889982282316E1  -1.050845502267121E2  -1.106604010469021E1  -1.377138227269644E2  -2.790606144638637E1  -4.268554110406110E1  
 1.622249388753056E11   -1.891971047206119E1  -2.032984422403202E1  -1.103820557508229E1  -1.494018755469446E2  -1.105978956924599E1   1.781125954300086E2  -2.383357503895464E1  -1.335390518188902E1  
 1.622371638141809E11   -2.320421853902822E1  -4.129766234350900E1  -1.059751592427376E1   1.631903383936669E2  -1.061932355953353E1   1.306410779006025E2  -2.372475231278011E1  -3.631641001985325E1  
 1.622493887530562E11   -2.740742917076852E1  -1.764966457596276E1  -1.043280753558489E1   1.141383166444858E2  -1.044827947651720E1   8.036003407486332E1  -2.766834538581567E1  -3.843961451801376E1  
 1.622616136919316E11   -2.410275499353537E1  -6.671904712282548  -1.066780303616947E1   6.554520447635734E1  -1.069522739546978E1   3.221991628149394E1  -2.755639087908262E1   6.417377816252418  
 1.622738386308069E11   -2.457595596608661E1  -2.469100610416059E1  -1.071261930953609E1   2.006061451150166E1  -1.074300896550420E1  -1.312373318903264E1  -2.188466075043503E1  -6.120424512333860  
 1.622860635696822E11   -2.738018615950148E1  -4.586837563433863  -1.039171282967772E1  -2.826039322358332E1  -1.043679354746108E1  -6.131683053298394E1  -2.250932028495294E1  -2.698976131957016E1  
 1.622982885085575E11   -2.334386669072666E1   2.020456198025373  -1.035393766813260E1  -7.743799621102336E1  -1.039256489800995E1  -1.108482656970197E2  -2.396343135253873E1  -2.291659688374404E1  
 1.623105134474328E11   -2.189907023076331E1  -1.754266872563487E1  -1.061670456858904E1  -1.257541117538999E2  -1.065094169678517E1  -1.593252613974312E2  -2.196351868421841E1  -1.407989026594964E1  
 1.623227383863081E11   -2.498215856945614E1  -4.103025933910804E1  -1.064960753653892E1  -1.719267527207263E2  -1.068495823579747E1   1.545524516114776E2  -1.917881018845894E1  -3.255255350655814E1  
 1.623349633251834E11   -2.970546933937908E1   1.539225214138371  -1.053269386792623E1   1.398726003895654E2  -1.057129700926152E1   1.062938671152738E2  -2.015338787731374E1  -5.735478895724030E1  
 1.623471882640587E11   -2.294794954109816E1   1.187544724989097E1  -1.071625726929707E1   9.040932048855727E1  -1.076311809014079E1   5.736572038411200E1  -2.384490873097134E1  -6.982352230742620E1  
 1.623594132029340E11   -2.063632806136732E1  -1.528067613672123E1  -1.115592331386713E1   4.425888609960985E1  -1.118956305849436E1   1.122276671661991E1  -2.462126799518734E1  -4.017654195924993E1  
 1.623716381418093E11   -2.421917012082617E1  -4.678655953801189E1  -1.101828869494559E1  -5.118949150645484E-1  -1.104851340499545E1  -3.379033579563053E1  -2.089663615681460E1  -5.969265752890851E1  
 1.623838630806846E11   -3.286628324169478E1   1.802594285075449E1  -1.080773842364265E1  -4.887219262221770E1  -1.083157550434781E1  -8.255482228943190E1  -2.261387248805260E1  -9.493144659969921E1  
 1.623960880195599E11   -2.145310466573264E1   2.588457840077741E1  -1.105495813052956E1  -9.715308523333590E1  -1.108488156004387E1  -1.300690298153624E2  -3.286654686170512E1  -1.318387222185879E2  
 1.624083129584352E11   -1.934850440516462E1  -7.152880158933126  -1.109841626807420E1  -1.416338936649192E2  -1.114793950632377E1  -1.746564457433214E2  -2.810933931749689E1  -1.897568750394100E1  
 1.624205378973105E11   -2.220222686719121E1  -2.376579734128379E1  -1.066452656110574E1   1.711776243883818E2  -1.071039284927341E1   1.381479421800670E2  -2.529715326583355E1  -6.444159381625255E1  
 1.624327628361858E11   -2.384123327465105E1  -1.652933926743753  -1.054312875718679E1   1.213113145155829E2  -1.059430014971817E1   8.874622812028242E1  -2.953703886971166E1  -1.064216247644040E2  
 1.624449877750611E11   -1.985970518691949E1   4.192229169182029  -1.088514655526356E1   7.208083340071313E1  -1.092535983469534E1   3.965550769983048E1  -3.734573837940351E1   1.060446179461059E2  
 1.624572127139364E11   -1.860373202868384E1  -1.374726654838373E1  -1.098991809442157E1   2.764761419981575E1  -1.103694076721983E1  -5.646801266118308  -2.697383243616902E1   1.540178836598344E1  
 1.624694376528117E11   -1.961863872438048E1  -1.550046683277710E1  -1.069685210404786E1  -2.065287036879064E1  -1.074334150457126E1  -5.245133172658787E1  -2.743512268400230E1  -1.558280469124443E1  
 1.624816625916870E11   -1.769634571905342E1  -1.004470605556498E1  -1.072257475598763E1  -6.956856036948763E1  -1.079660853963618E1  -1.019787302266599E2  -2.834338677011433E1  -6.002198384561736  
 1.624938875305624E11   -1.513860796174911E1  -2.327904955634192E1  -1.115617663842341E1  -1.168440400502152E2  -1.118870660324887E1  -1.495634713478341E2  -2.474256740674792E1   3.284871329234063  
 1.625061124694377E11   -1.502008609458699E1  -4.665287430581202E1  -1.111193768250444E1  -1.619253863224359E2  -1.120651299824655E1   1.656269991638754E2  -2.213755030949794E1  -2.800760031605976E1  
 1.625183374083130E11   -1.717925809192873E1  -5.951377219378762E1  -1.086973169019750E1   1.503227228607805E2  -1.091452512813960E1   1.180754286995348E2  -2.630920404210295E1  -5.919745795388222E1  
 1.625305623471883E11   -1.843093063138387E1  -5.080892986679120E1  -1.095496850427905E1   1.009857310499923E2  -1.101502879847546E1   6.913849114053572E1  -3.343808852211673E1  -6.097917276265829  
 1.625427872860636E11   -1.595866886747744E1  -5.423428262673011E1  -1.128197090537515E1   5.521562649060153E1  -1.131524780534342E1   2.358793583496217E1  -2.371916856782090E1   2.447860720364460  
 1.625550122249389E11   -1.557739561098460E1  -7.540115647634016E1  -1.102344589062042E1   9.495792346144912  -1.104893584198211E1  -2.190011188201402E1  -2.202496851886183E1  -4.408023274713329E1  
 1.625672371638142E11   -1.713895282017841E1  -9.298893229074965E1  -1.079524376923509E1  -3.862707066045096E1  -1.082394481367428E1  -7.015561429848098E1  -2.905936939916929E1  -1.075886611036384E2  
 1.625794621026895E11   -1.962537702320998E1  -1.018577571801016E2  -1.093767003499018E1  -8.760449238203101E1  -1.098462440233793E1  -1.187130610631260E2  -2.602482798825319E1   9.159288739324629E1  
 1.625916870415648E11   -2.041018559468175E1  -1.045987331033342E2  -1.115821988519316E1  -1.335936081503843E2  -1.119993257506374E1  -1.643522546306232E2  -1.888516024376397E1   3.701632508877390E1  
 1.626039119804401E11   -2.289690753362629E1  -1.271132321473794E2  -1.088167860808117E1  -1.795021508508592E2  -1.087645892343018E1   1.492914421708375E2  -1.768568497803255E1  -4.119703384824466  
 1.626161369193154E11   -3.443705362900425E1  -1.380144364373690E2  -1.068227929151541E1   1.314647894829249E2  -1.068659479482531E1   1.007090489883777E2  -2.049865941384667E1  -3.115395161982565E1  
 1.626283618581907E11   -2.834271914489924E1  -2.609663007955936E1  -1.085457108863915E1   8.335279870387473E1  -1.087602722205677E1   5.211686742313290E1  -2.578456002961927E1  -1.217474975813457E1  
 1.626405867970660E11   -2.423265582358626E1  -5.444311481243841E1  -1.088029924892778E1   3.686643593146498E1  -1.089082081061269E1   6.897325194968684  -2.048772599624642E1   6.970017325806174  
 1.626528117359413E11   -2.632751258847850E1  -4.852444757503947E1  -1.060590468237171E1  -1.064812971781328E1  -1.062297579603204E1  -4.107400972457761E1  -1.874437944829769E1  -9.120662783797039  
 1.626650366748166E11   -2.176246749378692E1  -3.299671979982519E1  -1.059976886652557E1  -6.005654865104232E1  -1.064885164149617E1  -9.079774353882533E1  -1.881367297150736E1  -1.557696220291386E1  
 1.626772616136919E11   -1.796823380681753E1  -5.506420778090882E1  -1.093135139982689E1  -1.076075253051171E2  -1.093816804286869E1  -1.380533932529744E2  -1.772515853639939E1  -1.356849452400082E1  
 1.626894865525672E11   -1.774778006505816E1  -8.842524579264131E1  -1.092141336645324E1  -1.529182692708314E2  -1.094528794166496E1   1.768312283232753E2  -1.540241205659802E1  -2.664896149954781E1  
 1.627017114914425E11   -2.187003605616915E1  -1.168514559938205E2  -1.070313703124556E1   1.601371414873461E2  -1.072497341929177E1   1.296404212839062E2  -1.554295771152285E1  -4.879173994087082E1  
 1.627139364303178E11   -3.022894562321508E1  -7.190200435252950E1  -1.065338298970659E1   1.112956367704114E2  -1.068613240335390E1   8.102406218768435E1  -1.796777782966732E1  -6.066049994380403E1  
 1.627261613691932E11   -2.108721417449535E1  -5.925318047789036E1  -1.073773521564949E1   6.476777937998990E1  -1.078549595672621E1   3.358614315480307E1  -1.898885869368953E1  -4.933819639485026E1  
 1.627383863080685E11   -1.919072309909746E1  -9.104358537941469E1  -1.061105388714821E1   1.764895134814549E1  -1.063465814886833E1  -1.382398606407440E1  -1.688866039705367E1  -5.805904151292984E1  
 1.627506112469438E11   -2.146361604429164E1  -1.202521774240313E2  -1.051695353662018E1  -3.166871426553405E1  -1.055576993693396E1  -6.201141850291312E1  -1.778190130838628E1  -8.163379701072964E1  
 1.627628361858191E11   -2.807128469818375E1  -1.244295682702591E2  -1.065365393283769E1  -8.018006090102431E1  -1.068871122845848E1  -1.108211173610210E2  -2.321050288823040E1  -9.993490591233179E1  
 1.627750611246944E11   -2.622452417713863E1  -8.552112571251476E1  -1.086458845949840E1  -1.266394591542647E2  -1.092084692827615E1  -1.575410191255779E2  -2.717259400055730E1  -2.745270588700576E1  
 1.627872860635697E11   -2.511667848786577E1  -1.123560711736736E2  -1.078047596751126E1  -1.735709799663899E2  -1.078764800736309E1   1.560177172907104E2  -2.025460307693341E1  -3.498969236932980E1  
 1.627995110024450E11   -3.218250021542031E1  -1.296836284452491E2  -1.067999245394740E1   1.383671861342616E2  -1.073019960648791E1   1.077093123179422E2  -2.048895045086615E1  -5.338293422167791E1  
 1.628117359413203E11   -3.153710482296891E1  -4.565573528509506E1  -1.082424038493986E1   9.008892756699595E1  -1.086376388772989E1   5.965546567313020E1  -2.288887284246007E1  -4.162903887628407E1  
 1.628239608801956E11   -2.498986411839984E1  -7.228797022845285E1  -1.089938128191592E1   4.362452155482678E1  -1.093359682736716E1   1.317490478319031E1  -1.899171070890973E1  -2.838234525642897E1  
 1.628361858190709E11   -2.758414603128614E1  -1.078903631092408E2  -1.079934179536479E1  -4.045845979918847  -1.085909197922814E1  -3.459077454265731E1  -1.692009824294230E1  -4.466283193776906E1  
 1.628484107579462E11   -3.946196823626253E1  -4.528053505696149E1  -1.087440462548594E1  -5.177277771745636E1  -1.091608664149739E1  -8.312829533410863E1  -1.769440411683286E1  -5.634479044009444E1  
 1.628606356968215E11   -2.475488349654291E1  -3.464670972043498E1  -1.111004332507550E1  -9.897986564382973E1  -1.112956681643873E1  -1.297808988314920E2  -1.776700772004155E1  -4.796539696745245E1  
 1.628728606356968E11   -2.263830669708367E1  -7.864600965875458E1  -1.104763542219644E1  -1.453162727367535E2  -1.106692054543476E1  -1.765654046183824E2  -1.508339262293788E1  -5.430918265978722E1  
 1.628850855745721E11   -2.721702727586246E1  -1.296609759244586E2  -1.104152773685407E1   1.667595891895344E2  -1.108748794364813E1   1.361781384634740E2  -1.423592232638566E1  -7.340476013613875E1  
 1.628973105134475E11   -3.128243745133264E1   6.788806040308118E1  -1.119998832947385E1   1.200099283818889E2  -1.124434696716108E1   8.835882411739607E1  -1.552847270376874E1  -9.188617699352672E1  
 1.629095354523228E11   -2.099783256726618E1  -1.011620872964343  -1.121180187334635E1   7.459583840491999E1  -1.125549158263260E1   4.334872928656366E1  -1.781731042562345E1  -9.241450301555507E1  
 1.629217603911981E11   -1.899844547888573E1  -4.022477739341527E1  -1.087413589247436E1   2.741789732338936E1  -1.094032344115115E1  -3.883060797472875  -1.760080132604906E1  -9.162787980601212E1  
 1.629339853300734E11   -2.056866363377811E1  -6.375987671396364E1  -1.075435610090684E1  -2.146667462401415E1  -1.079674687116452E1  -5.315454093688611E1  -1.788877876074526E1  -1.009332825787518E2  
 1.629462102689487E11   -2.193866090814802E1  -5.439240178421182E1  -1.095117918778473E1  -7.029205546261966E1  -1.098931519568301E1  -1.017091610833225E2  -1.997526745662643E1  -1.092705912671881E2  
 1.629584352078240E11   -1.797809029826274E1  -5.780194276863103E1  -1.116883552909055E1  -1.164832884545677E2  -1.120225707175655E1  -1.477114779207159E2  -2.174148409351267E1  -8.836774707683361E1  
 1.629706601466993E11   -1.677814635707291E1  -8.762172624348810E1  -1.101722631684819E1  -1.632378180925566E2  -1.104778391942505E1   1.654071681173051E2  -1.820272817094492E1  -9.001137837137810E1  
 1.629828850855746E11   -1.895734056296423E1  -1.185696116145812E2  -1.100752413217264E1   1.486134092513169E2  -1.104896714993536E1   1.165825471771898E2  -1.772712712886506E1  -1.159016789493983E2  
 1.629951100244499E11   -2.743570263824114E1  -1.283339613774752E2  -1.129669718596800E1   1.019238238928471E2  -1.134318424116962E1   6.960705330433227E1  -2.164275311197326E1  -1.471829469980386E2  
 1.630073349633252E11   -2.480682016326325E1  -6.980601184616553E1  -1.120536535801316E1   5.737641917070047E1  -1.125396086041451E1   2.505020051594767E1  -3.628866138327231E1  -9.050335456222622E1  
 1.630195599022005E11   -2.284895633948891E1  -8.676584786664787E1  -1.086871200144713E1   9.182991679284271  -1.088784602164105E1  -2.260956357340013E1  -2.391227716158848E1  -6.216305421053230E1  
 1.630317848410758E11   -2.521805546893640E1  -8.739342494773280E1  -1.083490721851672E1  -3.981496635867231E1  -1.089028713712037E1  -7.208119693221163E1  -2.277751870648623E1  -7.907424187387234E1  
 1.630440097799511E11   -2.229502182730879E1  -6.207039065305627E1  -1.102583760498401E1  -8.711861666545502E1  -1.104404321662631E1  -1.191093459621591E2  -2.454124146457031E1  -6.383500716471577E1  
 1.630562347188264E11   -1.863261989273413E1  -8.115210495133712E1  -1.087507194346086E1  -1.336861432480801E2  -1.092363500275097E1  -1.660305779478156E2  -1.938316671794411E1  -5.458967599553362E1  
 1.630684596577017E11   -1.875784883048078E1  -1.073026391273800E2  -1.080230690434413E1   1.778067934204699E2  -1.085864002518569E1   1.454611467863140E2  -1.669897000595734E1  -7.506465285738365E1  
 1.630806845965770E11   -2.254089401114021E1  -1.237108203176703E2  -1.097580058697677E1   1.299247844057857E2  -1.102239610151784E1   9.697479069788879E1  -1.665070238499505E1  -9.790435399178567E1  
 1.630929095354523E11   -2.409767761350804E1  -9.261512956928235E1  -1.111181704002074E1   8.409224730385343E1  -1.117032731798150E1   5.059944701529368E1  -1.887892252029111E1  -1.096840834508224E2  
 1.631051344743276E11   -2.062448344729396E1  -9.986442085918895E1  -1.094342283320642E1   3.690920529305998E1  -1.100308297966598E1   4.293144340892497  -1.948641870636665E1  -1.060976826098093E2  
 1.631173594132029E11   -2.048575951716423E1  -1.184541873983863E2  -1.089077631904183E1  -1.131188506297306E1  -1.092696734486074E1  -4.432852934384515E1  -1.895955229253559E1  -1.136739510392099E2  
 1.631295843520783E11   -2.330124559713661E1  -1.295213914053550E2  -1.106765234650060E1  -5.888347944034154E1  -1.114383371131204E1  -9.226804945001699E1  -2.010788527579435E1  -1.291376928295379E2  
 1.631418092909536E11   -2.334757724591377E1  -1.154087229538890E2  -1.112840822944344E1  -1.047030407941507E2  -1.118209305373097E1  -1.381097929745379E2  -2.449109121840908E1  -1.284830474515768E2  
 1.631540342298289E11   -2.276527877641643E1  -1.315868176153693E2  -1.088360942584618E1  -1.522269732680019E2  -1.093595356871886E1   1.737156472007921E2  -2.341973670418134E1  -1.050765180940869E2  
 1.631662591687042E11   -2.663006239710392E1  -1.554710390404576E2  -1.097357778312383E1   1.590519769918086E2  -1.101981040141706E1   1.250007610602562E2  -2.162962827996672E1  -1.159492485054493E2  
 1.631784841075795E11   -3.704786927160266E1  -4.375158840228444E1  -1.122074900000653E1   1.118642709661204E2  -1.126951928017908E1   7.856435440229942E1  -2.412521623708268E1  -1.341846627925740E2  
 1.631907090464548E11   -2.238639683291746E1  -6.285704395508044E1  -1.108875758917188E1   6.680223469037190E1  -1.114837141165066E1   3.281544785335385E1  -2.797135567505713E1  -9.210910268304411E1  
 1.632029339853301E11   -1.992814087896645E1  -9.167575909989115E1  -1.080646333547474E1   1.895628979249959E1  -1.089042706549421E1  -1.505665308210718E1  -2.154204654956252E1  -9.381698485176101E1  
 1.632151589242054E11   -2.060132693943017E1  -1.127274132505434E2  -1.091049676617289E1  -2.971466994583076E1  -1.097815202739009E1  -6.413025443168560E1  -2.065634130547526E1  -1.237832796203831E2  
 1.632273838630807E11   -2.189218617405008E1  -1.099352821150823E2  -1.118545593714159E1  -7.654041402707392E1  -1.125586954300460E1  -1.111445630547720E2  -2.579304256421039E1  -1.586307882673918E2  
 1.632396088019560E11   -1.953045468714423E1  -1.167024585935201E2  -1.099454786541272E1  -1.230588484625932E2  -1.110616003287819E1  -1.569714102950242E2  -3.182181735076012E1  -5.641550852246677E1  
 1.632518337408313E11   -1.924890938151927E1  -1.412339124191207E2  -1.092427241342845E1  -1.712760950819862E2  -1.095325524118324E1   1.547717916140943E2  -2.208630358465353E1  -8.004829398928024E1  
 1.632640586797066E11   -2.193383387141472E1  -1.681628273421709E2  -1.111240382227579E1   1.407924119676395E2  -1.117038944686125E1   1.069645974331029E2  -2.159058531674647E1  -1.171058963938562E2  
 1.632762836185819E11   -2.991184206061944E1  -1.630197796423668E2  -1.108628642878717E1   9.572048510887463E1  -1.115171054439545E1   6.186449493722547E1  -2.811482996276719E1  -1.366859799500370E2  
 1.632885085574572E11   -2.782683488151801E1  -1.363756720126790E2  -1.075708079669522E1   4.774269051912204E1  -1.078220115225658E1   1.380074272991541E1  -2.943903666507406E1  -7.167020676206997E1  
 1.633007334963325E11   -3.000786813069009E1  -1.569950289798439E2  -1.076174267969346E1  -1.845278613598137  -1.080122045134404E1  -3.584302253491435E1  -2.343256565238725E1  -7.822896526605470E1  
 1.633129584352078E11   -4.042955145228057E1  -2.074798263775464E1  -1.104879631892850E1  -4.948421082497490E1  -1.109589298052415E1  -8.345568221601380E1  -2.345069740847428E1  -1.033231862745161E2  
 1.633251833740831E11   -2.324000303344823E1  -5.773746459280962E1  -1.104064704340383E1  -9.502011336614385E1  -1.109934153081451E1  -1.286412662794118E2  -2.728270542909627E1  -9.080094276764780E1  
 1.633374083129584E11   -2.070658167990954E1  -9.666091759505089E1  -1.082065266941457E1  -1.430532444234972E2  -1.088962948895329E1  -1.766703425696573E2  -2.405461450974898E1  -7.476631855726623E1  
 1.633496332518337E11   -2.273687570855330E1  -1.250998626129931E2  -1.093944250215563E1   1.681474040736260E2  -1.100936640341906E1   1.340234856095942E2  -2.175406091626713E1  -8.723681837203777E1  
 1.633618581907091E11   -2.882350249916192E1  -9.838912295368068E1  -1.129408088731293E1   1.209413953570745E2  -1.135196712101883E1   8.751552500682098E1  -2.345841317182314E1  -9.749425301498955E1  
 1.633740831295844E11   -2.090131351113030E1  -8.173902231000469E1  -1.113654011340866E1   7.599982487319058E1  -1.121997062395086E1   4.261571508142104E1  -2.226193297741830E1  -7.645324354819643E1  
 1.633863080684597E11   -1.829717249507159E1  -1.104664864669499E2  -1.101019094488366E1   2.742971971714449E1  -1.105908814361914E1  -5.871114475280338  -1.874470360590739E1  -8.979602954238774E1  
 1.633985330073350E11   -1.957656885619825E1  -1.404555517293271E2  -1.122271909496820E1  -2.039344486452588E1  -1.128089588536843E1  -5.370332781096618E1  -1.821208813352158E1  -1.155359584270109E2  
 1.634107579462103E11   -2.558790697636649E1  -1.411577113546403E2  -1.124653624870198E1  -6.522319046930923E1  -1.127333817089249E1  -9.838015518966998E1  -2.161526427693697E1  -1.345127389043446E2  
 1.634229828850856E11   -2.337651797539398E1  -1.074038785215065E2  -1.080245639344788E1  -1.127359885870929E2  -1.087656924683331E1  -1.457020349640136E2  -2.391517198221256E1  -1.173180493618414E2  
 1.634352078239609E11   -2.039629662626011E1  -1.166289201898611E2  -1.070290722271488E1  -1.622704707330890E2  -1.076078146134344E1   1.645484643901726E2  -2.199986273194898E1  -1.150336088308297E2  
 1.634474327628362E11   -2.031201125129595E1  -1.354664186223486E2  -1.099775963966209E1   1.483676875957373E2  -1.107351980623972E1   1.159153581962880E2  -2.155313885330986E1  -1.341024543346608E2  
 1.634596577017115E11   -2.224453015428180E1  -1.327385768845305E2  -1.120403223154033E1   1.030009256709555E2  -1.126137041938054E1   7.095867382316767E1  -2.655394751431051E1  -1.541151778063732E2  
 1.634718826405868E11   -2.024891732859853E1  -1.349728726672570E2  -1.093460302262067E1   5.586512296436863E1  -1.099942126185828E1   2.402080640985926E1  -3.027129847137414E1  -1.036657591568939E2  
 1.634841075794621E11   -2.073550438445130E1  -1.537182845132513E2  -1.093591021207306E1   7.175771756257933  -1.099577184320849E1  -2.458030041226238E1  -2.546181802941731E1  -9.558460499498462E1  
 1.634963325183374E11   -2.533172450025464E1  -1.641008726154769E2  -1.117312147334268E1  -4.004712323632975E1  -1.123662000886321E1  -7.151843369576615E1  -2.563616311825510E1  -1.110585309164714E2  
 1.635085574572127E11   -2.547383472166194E1  -1.126744585629286E2  -1.102040570672055E1  -8.570159484873122E1  -1.110147133533957E1  -1.172044248230090E2  -2.706578438591788E1  -8.149293480547398E1  
 1.635207823960880E11   -2.041652615967050E1  -1.206140396174344E2  -1.078679409578062E1  -1.345116982216701E2  -1.084700725208795E1  -1.658780455260833E2  -2.161679336612268E1  -8.523070494204413E1  
 1.635330073349633E11   -1.944082035129796E1  -1.407894313868687E2  -1.098154620172869E1   1.767550246913718E2  -1.104374637829981E1   1.458131380599255E2  -2.016949393486872E1  -1.127854980373252E2  
 1.635452322738386E11   -2.176787325845864E1  -1.497529754752912E2  -1.124043844493503E1   1.310310616817848E2  -1.128494250551552E1   1.002094529235932E2  -2.448001600227887E1  -1.450818343196677E2  
 1.635574572127139E11   -2.103393560149436E1  -1.364454994009789E2  -1.088948565444865E1   8.432460970895370E1  -1.094296175727426E1   5.403334419852851E1  -3.042677446299337E1  -6.702046304163044E1  
 1.635696821515892E11   -1.938700692506940E1  -1.455674508204565E2  -1.074140141441143E1   3.491431781085078E1  -1.082260952660728E1   4.880875363563598  -2.129332587399425E1  -6.958458309496267E1  
 1.635819070904645E11   -1.956805506812037E1  -1.588472588779153E2  -1.097563255874602E1  -1.413017729290371E1  -1.105842591400204E1  -4.386086275495284E1  -1.859508138796268E1  -9.650218535979501E1  
 1.635941320293398E11   -2.147183183044153E1  -1.574505342455429E2  -1.120627253674038E1  -6.007147638616544E1  -1.125965535476513E1  -9.002711998040373E1  -2.048609957080018E1  -1.187526503360215E2  
 1.636063569682152E11   -1.958565391987911E1  -1.516223349909325E2  -1.095651424568203E1  -1.070284495350764E2  -1.101767645906916E1  -1.364592899849068E2  -2.213146762459303E1  -1.027964074906504E2  
 1.636185819070905E11   -1.802173443404123E1  -1.668467661879720E2  -1.091744915292029E1  -1.561877433940983E2  -1.096329486534380E1   1.747364802449540E2  -1.861816300887518E1  -1.005467762640299E2  
 1.636308068459658E11   -1.853881673952147E1   1.694318996645314E2  -1.131037256792950E1   1.566306922502909E2  -1.133518272940367E1   1.269159115264807E2  -1.662290595514873E1  -1.229757648780457E2  
 1.636430317848411E11   -2.400873439116998E1   1.466114869379576E2  -1.142673476855455E1   1.118613581770349E2  -1.148672938810778E1   8.274206439971268E1  -1.823688564685871E1  -1.466254186079441E2  
 1.636552567237164E11   -2.796417953393497E1  -1.542146148982674E2  -1.097628009514496E1   6.437300248047819E1  -1.104228362008615E1   3.518354161206453E1  -2.039887242016634E1  -1.464626022700447E2  
 1.636674816625917E11   -2.239446457858297E1  -1.475344221400519E2  -1.098296351284469E1   1.500182956604646E1  -1.103106402768973E1  -1.429029548198867E1  -1.970726039215177E1  -1.497065847538741E2  
 1.636797066014670E11   -2.114647758546157E1  -1.647486912554506E2  -1.139388572109005E1  -3.178171139941020E1  -1.144253597108987E1  -6.101401503943426E1  -1.966741250352943E1  -1.747003109264076E2  
 1.636919315403423E11   -2.183887813394486E1  -1.592737959108593E2  -1.121507892322932E1  -7.662468992102440E1  -1.127515179932183E1  -1.060723171105714E2  -2.499437440585660E1   1.518362891355302E2  
 1.637041564792176E11   -1.916904571135075E1  -1.659899124377764E2  -1.091937437474542E1  -1.251904410691717E2  -1.096551564029515E1  -1.543455917557776E2  -4.740824302873121E1  -1.110448078899629E2  
 1.637163814180929E11   -1.907278267180424E1   1.746014435513069E2  -1.108133650290624E1  -1.744072676360860E2  -1.112128850492599E1   1.569557353316489E2  -2.573250857034038E1  -9.713086532137848E1  
 1.637286063569682E11   -2.249997235363426E1   1.617504658414244E2  -1.122409897824366E1   1.399776936583323E2  -1.129397862019633E1   1.113751880004928E2  -2.466332623691056E1  -1.269277454078334E2  
 1.637408312958435E11   -2.353998269767891E1  -1.653166638055332E2  -1.090972278065963E1   9.351030300674032E1  -1.095561886309402E1   6.406978147834050E1  -2.623494483723569E1  -1.194643327329103E2  
 1.637530562347188E11   -1.943564545340722E1  -1.665015985455050E2  -1.082678419477199E1   4.419491583242216E1  -1.088059496636351E1   1.438694146899959E1  -2.387457631456665E1  -1.101406732516895E2  
 1.637652811735941E11   -1.761015457103356E1   1.746418633760659E2  -1.114748358123385E1  -4.813353032312231  -1.120261613402218E1  -3.450120141582978E1  -2.082520555549748E1  -1.225730266254961E2  
 1.637775061124694E11   -1.881620354126541E1   1.511926033023746E2  -1.148181285276287E1  -4.943295932925341E1  -1.153580313166597E1  -7.960876082204372E1  -2.157826362958377E1  -1.494015209800990E2  
 1.637897310513447E11   -2.173728028827697E1   1.529792048794692E2  -1.106985376368195E1  -9.488129146237212E1  -1.111016916532385E1  -1.253921439170253E2  -2.427374285118576E1  -1.443800329978230E2  
 1.638019559902200E11   -2.089613671320560E1   1.590638074667418E2  -1.092581188162617E1  -1.446252808017599E2  -1.096818739966543E1  -1.750004561700530E2  -2.275591426639549E1  -1.405969059589654E2  
 1.638141809290953E11   -2.007627861492420E1   1.453789667755917E2  -1.131509136681908E1   1.676321025032517E2  -1.134598885910196E1   1.365280982924809E2  -2.131395709437582E1  -1.599079959357580E2  
 1.638264058679706E11   -2.394193856474415E1   1.261929872468963E2  -1.133874300231137E1   1.231878414124985E2  -1.140150698953902E1   9.247721439545008E1  -2.495293757182759E1   1.640915367487060E2  
 1.638386308068460E11   -2.631677774442701E1   1.709933202712266E2  -1.088911568889629E1   7.544561346153212E1  -1.091492517075887E1   4.475932579534855E1  -3.755990071249013E1  -1.487100829224093E2  
 1.638508557457213E11   -2.138750525744334E1   1.683795775829495E2  -1.097343825715711E1   2.563449330472884E1  -1.101311679700051E1  -4.990265753180422  -2.622561224970520E1  -1.153188953407859E2  
 1.638630806845966E11   -2.051418355382764E1   1.431049861028887E2  -1.141129970553109E1  -2.033980229039997E1  -1.145605779869782E1  -5.169289480488292E1  -2.381663396097787E1  -1.544239851202337E2  
 1.638753056234719E11   -2.545350277026591E1   1.342615235776673E2  -1.108304853146750E1  -6.473998210976647E1  -1.112970156260654E1  -9.623304796467109E1  -3.289428202586451E1   1.755996232802912E2  
 1.638875305623472E11   -2.397504457868896E1   1.704037453405255E2  -1.073231171883833E1  -1.142698882366198E2  -1.077499839986439E1  -1.461101530064910E2  -3.098619419229862E1  -8.974815968539016E1  
 1.638997555012225E11   -1.987661278668649E1   1.596791962320209E2  -1.097635014590276E1  -1.641083355324410E2  -1.102035150371697E1   1.634059343642597E2  -2.427922586922717E1  -1.048522988467857E2  
 1.639119804400978E11   -1.906823987173620E1   1.279820939900121E2  -1.156528752847841E1   1.506270860952625E2  -1.163624093684768E1   1.179004200946218E2  -2.429110657361686E1  -1.408254836673827E2  
 1.639242053789731E11   -2.366706624641624E1   1.006877162488585E2  -1.120119338729058E1   1.068881806619095E2  -1.126314740156641E1   7.385213256829728E1  -2.969430195206658E1  -1.072251891313213E2  
 1.639364303178484E11   -3.031724643461720E1   1.301322723841505E2  -1.082503062406024E1   5.792436084881503E1  -1.088715726943198E1   2.457950314620603E1  -2.246751470590426E1  -1.051182337258275E2  
 1.639486552567237E11   -2.593516444840642E1   1.559519865039580E2  -1.102582172990653E1   8.686099703238320  -1.111469494823891E1  -2.460460073804180E1  -2.006027794836118E1  -1.298274767210520E2  
 1.639608801955990E11   -2.593912961507098E1   1.361257984270928E2  -1.123143988796196E1  -3.640381530069619E1  -1.127359724205706E1  -7.026015880541391E1  -2.180704228515000E1  -1.602385354463963E2  
 1.639731051344743E11   -2.769902982565965E1   1.654658487703103E2  -1.082581323453118E1  -8.297092400814697E1  -1.087094505824420E1  -1.169535456819380E2  -2.657803573293625E1  -1.538468912611349E2  
 1.639853300733496E11   -2.343883036752580E1   1.668581634951333E2  -1.075682354490822E1  -1.322536226458638E2  -1.080908311324144E1  -1.671288197235558E2  -2.526165236438433E1  -1.279771305709457E2  
 1.639975550122250E11   -2.160557637656659E1   1.492377486628139E2  -1.111526040333909E1   1.791663131861813E2  -1.121134980074338E1   1.442478220955503E2  -2.155297049989355E1  -1.356229621419682E2  
 1.640097799511003E11   -2.425985546363284E1   1.285705092177380E2  -1.124370295749631E1   1.347450270819454E2  -1.133474700613425E1   9.996542854999173E1  -2.227733271052013E1  -1.596044290207465E2  
 1.640220048899756E11   -2.680440482091098E1   1.569675642643909E2  -1.079307072928812E1   8.787614106672794E1  -1.088220728116643E1   5.248414195282602E1  -2.413799998042560E1  -1.536401300636736E2  
 1.640342298288509E11   -2.341906338432398E1   1.660386422681295E2  -1.073344056613184E1   3.784392018163904E1  -1.081723704340196E1   2.960481713238107  -2.295522423693928E1  -1.518522848434469E2  
 1.640464547677262E11   -2.121569460723323E1   1.547727223670844E2  -1.112535436457296E1  -1.008104380263987E1  -1.120928241467767E1  -4.514224648354492E1  -2.120136863787682E1  -1.663841687515557E2  
 1.640586797066015E11   -2.277870648010730E1   1.463782997017154E2  -1.114433677686512E1  -5.489796194812081E1  -1.122373683248849E1  -8.951089006783326E1  -2.390335416326883E1   1.623280552298612E2  
 1.640709046454768E11   -2.102104589463814E1   1.608025484803260E2  -1.076036953115892E1  -1.028068012259686E2  -1.081728782849700E1  -1.374136189764876E2  -3.160577941768791E1   1.791874782795833E2  
 1.640831295843521E11   -1.840844624823055E1   1.516195116270076E2  -1.081856046351771E1  -1.525523188188845E2  -1.091280257967300E1   1.725886963457061E2  -2.814871707902522E1  -1.340544481771752E2  
 1.640953545232274E11   -1.727545593242961E1   1.326204710928993E2  -1.131985233815025E1   1.605553044894880E2  -1.138256731905014E1   1.253436784852017E2  -2.392008339083436E1  -1.511986030611450E2  
 1.641075794621027E11   -1.887772403011559E1   1.190858851460661E2  -1.119030455090400E1   1.161900125081189E2  -1.124053766409959E1   8.078480722243170E1  -2.669222362390071E1  -1.590681895343884E2  
 1.641198044009780E11   -1.907178229990819E1   1.231433787270273E2  -1.090201632426283E1   6.733124677772855E1  -1.096454907249047E1   3.292261436433724E1  -2.413742104208808E1  -1.424321191674977E2  
 1.641320293398533E11   -1.730814175171057E1   1.168164487982000E2  -1.115250924319704E1   1.886859319538212E1  -1.123813712341111E1  -1.586452336846124E1  -2.147236369447850E1  -1.572385498662958E2  
 1.641442542787286E11   -1.658399331267383E1   9.448389616701323E1  -1.140359141141317E1  -2.585778939479783E1  -1.146209969626025E1  -6.030420188388008E1  -2.201396072316755E1   1.726963935058432E2  
 1.641564792176039E11   -1.907474203521581E1   7.416091102000438E1  -1.088986496381592E1  -7.142680833195895E1  -1.097570219502618E1  -1.064027404547483E2  -2.888944167184347E1  -1.790654570482381E2  
 1.641687041564792E11   -2.229042192198867E1   7.507630170825114E1  -1.063799626864038E1  -1.219592700867655E2  -1.071723874160287E1  -1.558138105879884E2  -2.373195925709731E1  -1.489059329228426E2  
 1.641809290953545E11   -2.249072271389932E1   8.465090710098355E1  -1.091988058703601E1  -1.715451115587044E2  -1.100991509694564E1   1.550866201861125E2  -2.009013574925496E1  -1.685772271418917E2  
 1.641931540342298E11   -2.213248107659606E1   6.901667724434141E1  -1.114417780051543E1   1.441001856653821E2  -1.122316978893244E1   1.103881586730937E2  -1.966238790107933E1   1.562685386005086E2  
 1.642053789731051E11   -2.796242613245834E1   6.143239310004740E1  -1.072432842131797E1   9.667751706943660E1  -1.081061458005127E1   6.398228301793083E1  -2.446890031702106E1   1.299601383639810E2  
 1.642176039119804E11   -2.721348538122659E1   1.115307113763194E2  -1.059141358320539E1   4.707056617286069E1  -1.067654440479250E1   1.385866594029118E1  -3.005956876868833E1   1.548950054089613E2  
 1.642298288508557E11   -2.216600103769504E1   1.027183227821276E2  -1.097213546938834E1  -1.602943699179956  -1.105332187845556E1  -3.398991157655533E1  -2.560526197610342E1   1.683511886379847E2  
 1.642420537897311E11   -2.179775576527155E1   7.081055855703669E1  -1.102259697669593E1  -4.643764578144190E1  -1.110376228695869E1  -7.867726963969517E1  -2.611779015014925E1   1.248902772963721E2  
 1.642542787286064E11   -2.685030568276991E1   5.074180715187263E1  -1.068486565174958E1  -9.443872221951239E1  -1.077071866112679E1  -1.265749640661668E2  -4.597396899156171E1   5.300701456485539E-1  
 1.642665036674817E11   -3.202369413508265E1   9.895563372911278E1  -1.076641480886978E1  -1.443367812935184E2  -1.086492603543573E1  -1.763627590611584E2  -2.576894512053775E1  -1.227093993878481E2  
 1.642787286063570E11   -2.483017584102682E1   1.020866802293469E2  -1.123601266184219E1   1.692546739747628E2  -1.134021045845736E1   1.372016877442768E2  -2.101722106162089E1  -1.653181438267243E2  
 1.642909535452323E11   -2.591585457899667E1   7.062634967487772E1  -1.103853646990653E1   1.250325029962429E2  -1.112045351379243E1   9.310102064116009E1  -2.271842811922707E1   1.576601706637378E2  
 1.643031784841076E11   -3.094339995487125E1   8.087255928444699E1  -1.066296668087533E1   7.616988240803768E1  -1.077694427850758E1   4.440768706429458E1  -2.636702123396097E1   1.625479924640772E2  
 1.643154034229829E11   -2.919973570435014E1   1.024029775351896E2  -1.082478185550139E1   2.643454971322574E1  -1.090618995977379E1  -4.371334174955647  -2.391852212430768E1   1.746868640755170E2  
 1.643276283618582E11   -2.828803755353391E1   8.230678388664984E1  -1.111980833255401E1  -1.978092334634482E1  -1.117831421761725E1  -5.005821805152819E1  -2.108657201035561E1   1.509894588151802E2  
 1.643398533007335E11   -5.201223276721213E1   1.052146078543127E2  -1.078997661577717E1  -6.545335922589004E1  -1.087537448355222E1  -9.582223251179089E1  -2.310369780448650E1   1.150798834056203E2  
 1.643520782396088E11   -2.630834826791129E1   1.784852582058522E2  -1.058370485840797E1  -1.151492833657612E2  -1.065512999275670E1  -1.447764937865102E2  -3.079129837611364E1   9.728325737647722E1  
 1.643643031784841E11   -2.138074380989462E1   1.516961214184414E2  -1.079496769805758E1  -1.644406441030390E2  -1.086155310537210E1   1.661334558342671E2  -3.111687030979229E1  -1.671403442981656E2  
 1.643765281173594E11   -2.054935727921659E1   1.271660548361591E2  -1.101631952197424E1   1.504170247150699E2  -1.107535620276086E1   1.207883835833670E2  -2.392351518305174E1   1.643059307350384E2  
 1.643887530562347E11   -2.079717603465371E1   1.266349291184633E2  -1.070465632900424E1   1.034528622708212E2  -1.075836002939871E1   7.376253257229931E1  -2.416506962014908E1   1.421297450925175E2  
 1.644009779951100E11   -1.808780649391499E1   1.203359790072403E2  -1.063974202607279E1   5.338534567498692E1  -1.071005247846271E1   2.440363294119043E1  -2.432049248192534E1   1.319046914570025E2  
 1.644132029339853E11   -1.638164921516011E1   1.001516266487363E2  -1.101907539125539E1   5.557580325049242  -1.105445271285883E1  -2.427641176719943E1  -2.476887420191216E1   1.247730590909596E2  
 1.644254278728606E11   -1.656881379098858E1   7.340525239260612E1  -1.124635329271032E1  -3.919986744368258E1  -1.126546709855189E1  -6.810028670098333E1  -2.368527564061769E1   1.003526266389073E2  
 1.644376528117359E11   -1.988742723993651E1   5.207930017323763E1  -1.084249922636353E1  -8.529818143145440E1  -1.088701489884094E1  -1.150434934330494E2  -2.936074620387988E1   4.772946660578440E1  
 1.644498777506112E11   -2.460983387602687E1   6.049749956207334E1  -1.073458065423895E1  -1.346906724613519E2  -1.079267193719152E1  -1.645594997028952E2  -3.266711130693546E1  -1.321931017063744E2  
 1.644621026894865E11   -2.300939537271932E1   8.155112809364026E1  -1.101731319171658E1   1.779873201751907E2  -1.105081066490170E1   1.485129740540196E2  -2.337303819457020E1   1.690887107019549E2  
 1.644743276283619E11   -2.326242849662566E1   6.791348734195138E1  -1.086484892521666E1   1.323987624919028E2  -1.091687149327360E1   1.025845445532357E2  -2.252230323159804E1   1.235111920687588E2  
 1.644865525672372E11   -2.590452633362374E1   8.790926547511265E1  -1.066010742204827E1   8.365775907166496E1  -1.070901602286798E1   5.322522444427781E1  -2.693352937065490E1   1.017683784897301E2  
 1.644987775061125E11   -2.167012644690473E1   1.039088187992359E2  -1.089477066015487E1   3.464552772513797E1  -1.094250379270278E1   3.966553226424732  -2.909761187732326E1   1.362481466282422E2  
 1.645110024449878E11   -1.829811774455503E1   8.619388080630077E1  -1.126851148067828E1  -1.106270963466954E1  -1.130499220592533E1  -4.163281367595300E1  -2.294103530662784E1   1.313490168024225E2  
 1.645232273838631E11   -1.888343753841968E1   6.239511362154168E1  -1.096015156173765E1  -5.577200678452043E1  -1.099437272000159E1  -8.671780730539369E1  -2.310435168860539E1   9.520696147790501E1  
 1.645354523227384E11   -2.122590528690661E1   5.917973364971572E1  -1.067178292142162E1  -1.044310850564390E2  -1.072581722618731E1  -1.356005304557613E2  -2.911255693006789E1   9.414263990450782E1  
 1.645476772616137E11   -2.081413249969076E1   6.442065804206922E1  -1.086775302368483E1  -1.540143623407381E2  -1.089385865936753E1   1.752832867925420E2  -2.518005915642321E1   1.368257624864613E2  
 1.645599022004890E11   -1.959744615444959E1   5.017177829669433E1  -1.111578464334683E1   1.610104794189769E2  -1.116021942140505E1   1.296645708153250E2  -1.962658605879475E1   1.140395588388451E2  
 1.645721271393643E11   -2.285137450043661E1   2.552522940636283E1  -1.086551256024675E1   1.145454042196261E2  -1.091426431625692E1   8.357387355586040E1  -1.915650097659439E1   7.802054994463303E1  
 1.645843520782396E11   -3.156926026770294E1   7.388627367916241E1  -1.072036480452628E1   6.614656709415019E1  -1.076187485268248E1   3.484739529410722E1  -2.222895399597764E1   5.544679633910179E1  
 1.645965770171149E11   -2.136837461341658E1   9.769629070113119E1  -1.089656634080041E1   1.804255132195378E1  -1.093179744245226E1  -1.368888250236666E1  -2.591229818951843E1   7.204005702646968E1  
 1.646088019559902E11   -1.857719948095497E1   6.800759882689624E1  -1.090309618334291E1  -2.738688222405606E1  -1.094779968192750E1  -5.912016915302328E1  -2.109017106217137E1   7.783061197180358E1  
 1.646210268948655E11   -2.079500970391539E1   4.807998074225797E1  -1.064507053794900E1  -7.500566655708990E1  -1.068028019592636E1  -1.068849016334659E2  -1.980206051984100E1   4.963777162341778E1  
 1.646332518337408E11   -2.289802084444395E1   7.058618510385763E1  -1.067146037003252E1  -1.236760315191469E2  -1.069320654228544E1  -1.564021122721256E2  -2.204529461550971E1   2.921695573433740E1  
 1.646454767726162E11   -1.782530626957717E1   7.272423232356766E1  -1.098282573466749E1  -1.709589555707069E2  -1.100004331533360E1   1.562327394697492E2  -2.491387959196810E1   4.572303132180513E1  
 1.646577017114915E11   -1.596009567322510E1   4.503896148738310E1  -1.087674116175419E1   1.432643044033586E2  -1.091562890788376E1   1.104851248093230E2  -1.949549681633584E1   4.521880316724286E1  
 1.646699266503668E11   -1.742264001035352E1   1.731471123072946E1  -1.065285866360739E1   9.601642588085517E1  -1.072495636806595E1   6.325676622176708E1  -1.784181083029317E1   1.117821811426123E1  
 1.646821515892421E11   -2.235845577387516E1   2.163129329605112  -1.068793923523759E1   4.758477285124635E1  -1.073881407387903E1   1.429268811113448E1  -1.956107778365999E1  -2.374914515162950E1  
 1.646943765281174E11   -2.435378380105917E1   4.061363393519950E1  -1.092464344815293E1   5.703463650058771E-1  -1.095456274520029E1  -3.293737417112394E1  -2.597321476836636E1  -5.174525099471417E1  
 1.647066014669927E11   -2.093728053902571E1   3.007954015995816E1  -1.076914326846163E1  -4.527900557880326E1  -1.077872791100767E1  -7.867591464667841E1  -2.831005120453431E1   1.189182923491659E1  
 1.647188264058680E11   -2.243792889380671E1   7.312994252405673  -1.053276249853084E1  -9.308501289499604E1  -1.058511362382569E1  -1.269419933246919E2  -2.307721206246430E1  -1.135197558921061E1  
 1.647310513447433E11   -3.056979599114694E1   6.953339993978247  -1.060127323558300E1  -1.416570792030470E2  -1.065250287149429E1  -1.754425357946487E2  -2.420944027893855E1  -4.647798022183993E1  
 1.647432762836186E11   -2.524770169789721E1   7.188015871484966E1  -1.074585733347276E1   1.719194222233674E2  -1.078014920708423E1   1.378274294118310E2  -3.270381342388339E1  -5.075346315038757E1  
 1.647555012224939E11   -2.188396815983351E1   5.038250205357973E1  -1.056950717689233E1   1.249702703460274E2  -1.058044391748866E1   9.094101757852397E1  -2.721731948820637E1  -9.509614213894707  
 1.647677261613692E11   -2.281935636621352E1   3.452044901119832E1  -1.046770121109207E1   7.626063151683323E1  -1.052486410084626E1   4.242520849552064E1  -2.449656074602532E1  -4.332957363164005E1  
 1.647799511002445E11   -2.495322492934027E1   4.589889565718855E1  -1.063099458001021E1   2.852910271743593E1  -1.069036626946138E1  -5.879381512270339  -2.659763492852294E1  -8.530454146511087E1  
 1.647921760391198E11   -2.178772270665681E1   5.421071346406087E1  -1.069329584077797E1  -1.716643596464407E1  -1.074280578311586E1  -5.161326394088636E1  -4.370986498935329E1  -1.416452815846356E2  
 1.648044009779951E11   -2.122551759770026E1   3.824900511860768E1  -1.046183787866065E1  -6.515203018526155E1  -1.048663391144535E1  -9.901405351997887E1  -3.022471946950473E1  -9.777852678447852  
 1.648166259168704E11   -2.333486875675151E1   3.641862562210712E1  -1.038025771113400E1  -1.135084601349676E2  -1.042102259087418E1  -1.475574426955316E2  -2.745500737459194E1  -5.898601133903838E1  
 1.648288508557457E11   -2.230237596980191E1   5.971678870819280E1  -1.054237387983397E1  -1.614085521942425E2  -1.058796187749937E1   1.644439762562011E2  -3.079838205629013E1  -1.151449167600126E2  
 1.648410757946210E11   -1.860893920998232E1   5.121925733729756E1  -1.049554442124696E1   1.524323347267219E2  -1.054814683765002E1   1.182646019905473E2  -3.870078338903277E1   6.360115026586402E1  
 1.648533007334963E11   -1.772887236177751E1   3.262828412981529E1  -1.035689711010164E1   1.041743781693151E2  -1.039295392631648E1   7.013430256250263E1  -2.766533431671426E1  -2.749682423783066E1  
 1.648655256723716E11   -1.880458330054766E1   1.983140292967531E1  -1.042976657822360E1   5.584543979626042E1  -1.047474704754191E1   2.172586783256565E1  -2.538558562026466E1  -9.075381269020953E1  
 1.648777506112470E11   -1.960472585755822E1   2.017620938096259E1  -1.056457184403299E1   8.537737586230437  -1.060078516679932E1  -2.511057673534098E1  -2.561812262114190E1  -1.616867767920848E2  
 1.648899755501223E11   -1.950104317008442E1   1.174935517155486E1  -1.039970604230229E1  -3.799422374203926E1  -1.044862660274560E1  -7.239314621479439E1  -2.697751960583420E1   1.143923342494478E2  
 1.649022004889976E11   -2.136432377077352E1   5.411708443814246  -1.031372063932530E1  -8.697976869114184E1  -1.034667637736683E1  -1.209278132491723E2  -2.815285550032831E1   3.210492872547816E1  
 1.649144254278729E11   -2.322209981958173E1   2.048392171780839E1  -1.050878295772542E1  -1.358260027338492E2  -1.056053369804280E1  -1.698516969914583E2  -3.059499315613288E1  -5.185069486051345E1  
 1.649266503667482E11   -2.001132911043731E1   3.043280906207676E1  -1.074338966345226E1   1.774699290351186E2  -1.077012461967662E1   1.439264998440140E2  -3.288194769962787E1  -1.707744638019404E2  
 1.649388753056235E11   -1.871355206745660E1   1.395432593837622E1  -1.059914418382002E1   1.306970646021289E2  -1.065405181460162E1   9.727432235084314E1  -2.947666302642073E1   7.804127106559085E1  
 1.649511002444988E11   -2.027918328420511E1   3.374634604946590E-1  -1.062194695677464E1   8.191183832274379E1  -1.063340852111074E1   4.920139396508402E1  -2.854697348738540E1  -3.396628596501293  
 1.649633251833741E11   -2.285509905378438E1   1.354867095570759E1  -1.093940942555699E1   3.410718301082709E1  -1.097495618167864E1   1.479341879476099  -2.938762151906624E1  -9.677514499662730E1  
 1.649755501222494E11   -1.957618720519695E1   2.229215175902442E1  -1.101078797565453E1  -1.047537273128786E1  -1.105235533771965E1  -4.366669863293454E1  -2.739291167344200E1   1.572954519922851E2  
 1.649877750611247E11   -1.860459042733399E1   5.743747549017249  -1.080287885831269E1  -5.757246200130035E1  -1.084290598342448E1  -9.054769864277753E1  -2.611393522914292E1   7.925339289830689E1  
 1.650000000000000E11   -2.036040355573210E1  -1.768038522982589  -1.080667590700939E1  -1.056845716340512E2  -1.083252437998679E1  -1.386756893194157E2  -2.992858318474903E1   1.784999397113926E1  
 1.650122249388753E11   -2.080191604893726E1   1.464609936681087E1  -1.089396188076442E1  -1.522125586500961E2  -1.096844318731878E1   1.748457047625872E2  -3.930856930996771E1   1.427543653775010E2  
 1.650244498777506E11   -1.764305981363832E1   1.253511881661426E1  -1.069424100900820E1   1.613433170147136E2  -1.075809448530742E1   1.282812222135971E2  -2.521497795467230E1   8.345582962434786E1  
 1.650366748166259E11   -1.632271921523915E1  -4.178874145061988  -1.057403694623852E1   1.127007685903885E2  -1.064760173613429E1   8.000308934070328E1  -2.259076701379118E1   2.744956450064625E1  
 1.650488997555012E11   -1.691490361549533E1  -2.033939681500241E1  -1.069655535415276E1   6.492945800480570E1  -1.074907641844385E1   3.232982033095931E1  -2.417775875033759E1  -3.100177785037011E1  
 1.650611246943765E11   -1.809450990181139E1  -2.765570575487621E1  -1.077810984824047E1   1.820595167375647E1  -1.082704070673809E1  -1.425759041164796E1  -2.931994906204665E1  -1.156050222405669E2  
 1.650733496332518E11   -1.849142265838478E1  -3.677718271277583E1  -1.060723860045453E1  -2.874501788870984E1  -1.066475663813894E1  -6.099272606299158E1  -2.850377424405717E1   1.318768237652910E2  
 1.650855745721271E11   -2.034389641470221E1  -4.973815377852436E1  -1.050700100443195E1  -7.714805170042432E1  -1.056643760863580E1  -1.091138313400690E2  -2.656645660782780E1   6.666156665449425E1  
 1.650977995110024E11   -2.427904058580364E1  -5.057607299271486E1  -1.059735923503133E1  -1.250449446162617E2  -1.061375304323831E1  -1.570231420997538E2  -3.190473172460971E1   2.913595785930025E1  
 1.651100244498778E11   -2.464952662614867E1  -1.847429723565710E1  -1.060289862268676E1  -1.721250511630032E2  -1.064410142078295E1   1.562232488452034E2  -3.023836862230874E1   1.064024278674830E2  
 1.651222493887531E11   -2.140312739093665E1  -2.483402385175761E1  -1.053908865146736E1   1.399352966259563E2  -1.056720467360771E1   1.086037225038351E2  -2.276958244119976E1   7.450107022201468E1  
 1.651344743276284E11   -2.133421210438476E1  -4.689902120195742E1  -1.060386462374233E1   9.196793176834196E1  -1.062799746713179E1   6.081497214347759E1  -2.131071977093640E1   3.626097815750018E1  
 1.651466992665037E11   -2.544180690202761E1  -6.791608438298106E1  -1.074343442039813E1   4.547053192898964E1  -1.076290655112878E1   1.415414840148696E1  -2.438187110456629E1   4.301433964450255  
 1.651589242053790E11   -3.223058945205147E1  -3.214400619484925E1  -1.056679823812662E1  -1.297572590091402  -1.059153036487645E1  -3.207867425256782E1  -2.938729789675390E1   2.342311726601118E1  
 1.651711491442543E11   -2.893382180811314E1  -1.175096751898055E1  -1.036755298480067E1  -4.915771082096339E1  -1.039179841720206E1  -8.076535736574473E1  -2.573406853745317E1   3.907630993338312E1  
 1.651833740831296E11   -3.122574169632435E1  -8.164682529235728  -1.048682834832045E1  -9.810848580959106E1  -1.049364412086703E1  -1.296854624250512E2  -2.456075241291882E1   2.332454225718536E1  
 1.651955990220049E11   -2.754726403823538E1   5.425504756273855E1  -1.065675185665486E1  -1.446206105101530E2  -1.065511043225011E1  -1.762802728737570E2  -2.620090715823601E1   3.194699544411401E1  
 1.652078239608802E11   -2.000866515599029E1   3.590445981272838E1  -1.052265567860929E1   1.683732235252975E2  -1.053019428588662E1   1.369383870851487E2  -2.148639791828165E1   3.678885984930921E1  
 1.652200488997555E11   -1.770145184497105E1   9.569567663061440  -1.048120993489545E1   1.201885108772105E2  -1.049877913070273E1   8.862951565406581E1  -1.890484033798097E1   9.566179949571534  
 1.652322738386308E11   -1.781639060068998E1  -1.431581423648777E1  -1.059622529336656E1   7.237916246553657E1  -1.059882000035878E1   4.132231744544133E1  -1.985090191118279E1  -2.489635590448346E1  
 1.652444987775061E11   -1.966552741423264E1  -2.719572073996232E1  -1.056416620341467E1   2.606130372677077E1  -1.058763082956625E1  -5.338194631510274  -2.599757870652791E1  -5.011977608285685E1  
 1.652567237163814E11   -2.126937362918405E1  -2.890886170023858E1  -1.039816627737452E1  -2.187410483997742E1  -1.041315375305523E1  -5.334327459781574E1  -3.078355030090675E1   1.264991834004191E1  
 1.652689486552567E11   -2.212789196563805E1  -2.849867995986536E1  -1.043530684914368E1  -7.043545688416515E1  -1.046170793138442E1  -1.022476031786996E2  -2.425797382954058E1   6.909520952944611  
 1.652811735941320E11   -2.423866380014990E1  -2.699448920495505E1  -1.068089414851465E1  -1.183152880631180E2  -1.070263951162651E1  -1.495120379300921E2  -2.602486488206594E1  -2.245988786659795E1  
 1.652933985330073E11   -2.347935906073627E1   4.654669009364552  -1.071284111833726E1  -1.644923471413067E2  -1.073028491494511E1   1.651627524754827E2  -3.099269947706180E1   4.457939066988480E1  
 1.653056234718826E11   -1.901737105040277E1   7.110002545791682E-1  -1.053797196023395E1   1.479009351984447E2  -1.054499839597189E1   1.176003180562886E2  -2.096895629850595E1   3.539417478563306E1  
 1.653178484107579E11   -1.765174325075955E1  -1.944101539690454E1  -1.063433690316749E1   1.001452721361384E2  -1.065042663408478E1   6.947782145247955E1  -1.825706611152050E1   2.213892614657996  
 1.653300733496332E11   -1.881751039736733E1  -3.361697868604072E1  -1.070586827041332E1   5.363501625800964E1  -1.072584399129500E1   2.329244785778432E1  -1.990936292412696E1  -2.886950350892782E1  
 1.653422982885085E11   -2.009622754581526E1  -3.232789117221292E1  -1.045667069355222E1   6.828237571731910  -1.048079486904682E1  -2.348039253186394E1  -2.490621410609672E1  -2.940873722009848E1  
 1.653545232273839E11   -1.965486699255763E1  -2.935854578392623E1  -1.032431695339067E1  -4.196517303939605E1  -1.034818395482322E1  -7.239431991822212E1  -2.317407728109960E1  -2.573635773860726  
 1.653667481662592E11   -1.865149336984963E1  -3.610871632404515E1  -1.049123183834797E1  -9.068950569524574E1  -1.051403882612144E1  -1.211101058766124E2  -1.976937816819460E1  -1.934268256068095E1  
 1.653789731051345E11   -1.962637240303607E1  -4.565679093890604E1  -1.067954212993999E1  -1.368598985534752E2  -1.072563281439214E1  -1.673711344253485E2  -2.103660048040339E1  -5.015748320024967E1  
 1.653911980440098E11   -2.042118791465061E1  -4.264898228772645E1  -1.049565838888952E1   1.765001338217853E2  -1.052945156033557E1   1.462276925246475E2  -2.776205703433287E1  -5.359311614392046E1  
 1.654034229828851E11   -2.020320833950829E1  -4.220730072061468E1  -1.037886494866432E1   1.280281806559897E2  -1.040561018141339E1   9.804390238964001E1  -2.551775650323102E1  -6.517679221422370  
 1.654156479217604E11   -1.999018590228369E1  -4.584160323598043E1  -1.048738906237650E1   7.987765724565736E1  -1.053609137760725E1   4.956057493480914E1  -2.153970954748203E1  -2.522543266063765E1  
 1.654278728606357E11   -2.062673804715565E1  -4.457960608948758E1  -1.054917428171898E1   3.282789152620477E1  -1.061933707080898E1   3.263003346521733  -2.365389621594234E1  -5.490865560614013E1  
 1.654400977995110E11   -1.963227556773829E1  -4.394933440492607E1  -1.040435531456656E1  -1.470668715500592E1  -1.044007489325147E1  -4.449992963260474E1  -3.103713422199171E1  -3.354185104181219E1  
 1.654523227383863E11   -1.892945505120303E1  -5.032711332580877E1  -1.045185846997818E1  -6.340315148974911E1  -1.048236340067366E1  -9.317880337462367E1  -2.392876692178441E1  -2.361027297527933E-1  
 1.654645476772616E11   -1.925806827247624E1  -6.098776380427818E1  -1.067349939310130E1  -1.113198546937473E2  -1.070950104949763E1  -1.411461523778011E2  -2.099023955561778E1  -3.008980243874757E1  
 1.654767726161369E11   -2.121936294515168E1  -6.381904935893532E1  -1.069813636725482E1  -1.567798344728481E2  -1.074468093642483E1   1.731020728178829E2  -2.384117871880091E1  -5.694015591476979E1  
 1.654889975550122E11   -2.126820151593347E1  -5.292967915644822E1  -1.052070534357557E1   1.556061565173401E2  -1.056414969844731E1   1.253226298184889E2  -2.953780233833124E1  -3.742606432340438E1  
 1.655012224938875E11   -1.968014377877001E1  -5.410314099958269E1  -1.062350450712568E1   1.068761223453142E2  -1.064940867956871E1   7.663413694781028E1  -2.541973562462670E1  -1.904479204393857E1  
 1.655134474327628E11   -1.954006343179165E1  -6.654175359312792E1  -1.079609542122445E1   6.054607910344339E1  -1.085594795319180E1   3.010390662539053E1  -2.590422224862071E1  -3.694942039674631E1  
 1.655256723716381E11   -2.089763715276717E1  -6.769534126947102E1  -1.058171128973686E1   1.386657368770409E1  -1.065177154668484E1  -1.676893616677714E1  -2.880827899337802E1  -1.248416280457224E1  
 1.655378973105134E11   -2.070858486085313E1  -6.508801070830536E1  -1.050949492304088E1  -3.475748866209301E1  -1.054616220706938E1  -6.610443533560549E1  -2.440485560902633E1   5.433145294192817  
 1.655501222493887E11   -1.951429995933469E1  -7.279061758549987E1  -1.077889986235442E1  -8.370072408023465E1  -1.084207166005091E1  -1.147323578906740E2  -2.080061656155692E1  -1.245265798828272E1  
 1.655623471882640E11   -2.134946354687056E1  -9.164964005908681E1  -1.112498582553504E1  -1.288539463991260E2  -1.114956938788624E1  -1.601323954129373E2  -2.220362952204357E1  -3.958983644278394E1  
 1.655745721271393E11   -2.538314724939352E1  -7.493753080309276E1  -1.078330712968781E1  -1.748306914366311E2  -1.083074678729413E1   1.542242341180775E2  -2.618937409836169E1  -2.248183463969131E1  
 1.655867970660147E11   -2.294711077046565E1  -5.973826620719164E1  -1.069112508319822E1   1.360866450418681E2  -1.072962544924364E1   1.049406731447263E2  -2.252476198702200E1  -8.381322717418362  
 1.655990220048900E11   -2.154158774473298E1  -7.375312489820496E1  -1.103384487933853E1   8.803573254772961E1  -1.108414942044659E1   5.641422357684071E1  -2.057633149071796E1  -2.946010294457516E1  
 1.656112469437653E11   -2.626319993755915E1  -8.366332180717475E1  -1.112468340872000E1   4.407504378342402E1  -1.116819897128768E1   1.180196622594509E1  -2.505613532422109E1  -4.190006567792497E1  
 1.656234718826406E11   -2.517588969253067E1  -2.968854202134096E1  -1.081146986177710E1  -3.602252940505951  -1.085608199822046E1  -3.584281810002018E1  -2.398549200034824E1   7.032900996730723  
 1.656356968215159E11   -1.956100016359944E1  -3.601947409148418E1  -1.086531587853024E1  -5.235653355794446E1  -1.092152005994121E1  -8.491865085850931E1  -1.805204717940735E1  -2.341708843331056  
 1.656479217603912E11   -1.749040291484359E1  -5.738097594807343E1  -1.116246297288137E1  -9.889814553505121E1  -1.121857887296656E1  -1.312096876839875E2  -1.628223995678681E1  -2.995526523414411E1  
 1.656601466992665E11   -1.782696125631242E1  -7.424614058288913E1  -1.095486605451071E1  -1.438242105801037E2  -1.101855755931728E1  -1.763186048120016E2  -1.739569843678324E1  -5.015532491989279E1  
 1.656723716381418E11   -1.873049789521584E1  -8.624404164392779E1  -1.066314044461887E1   1.678704202006470E2  -1.072141276830965E1   1.352370580213624E2  -1.939464503370846E1  -6.117802377083630E1  
 1.656845965770171E11   -2.041021950237275E1  -8.975868543008025E1  -1.068418563929861E1   1.191371303665579E2  -1.074201358457839E1   8.617203911528281E1  -2.089948221262833E1  -5.583012981097162E1  
 1.656968215158924E11   -2.103666897362731E1  -8.973782552493255E1  -1.089701439744860E1   7.293656128001770E1  -1.095906585060519E1   3.919286387942422E1  -2.050619541588603E1  -6.174786717741246E1  
 1.657090464547677E11   -2.166267777324308E1  -8.760307093809742E1  -1.070095979593410E1   2.652606434464471E1  -1.073268035953970E1  -6.669053825463418  -2.303464310031481E1  -6.517030837079146E1  
 1.657212713936430E11   -2.132999354170227E1  -8.852098005503521E1  -1.052000775094080E1  -2.231521234203834E1  -1.056095252544801E1  -5.564309612668550E1  -2.449535055882021E1  -4.857199373426118E1  
 1.657334963325183E11   -2.146734424374757E1  -9.224053370822246E1  -1.069908440150135E1  -7.096597423444553E1  -1.074591977740659E1  -1.048188112349596E2  -2.188803395627009E1  -3.713671870584733E1  
 1.657457212713937E11   -2.228668471546652E1  -1.019875583320231E2  -1.094354710947022E1  -1.171664950673481E2  -1.099018017947241E1  -1.509233017128727E2  -2.093561467004662E1  -5.126672048856280E1  
 1.657579462102690E11   -2.527339900850602E1  -9.806191175057961E1  -1.068653970888446E1  -1.634968725930630E2  -1.070844975379770E1   1.624790709206183E2  -2.250305343121671E1  -4.580872524665651E1  
 1.657701711491443E11   -2.646286732361767E1  -7.610597925899988E1  -1.054381401064269E1   1.475230575061469E2  -1.060101548531102E1   1.131718880424073E2  -2.027929943990452E1  -3.848037411518708E1  
 1.657823960880196E11   -2.291710136466602E1  -5.912373227684091E1  -1.078921097085066E1   9.881158047847144E1  -1.086054505060942E1   6.474318061195339E1  -1.805228464032872E1  -5.185256325628296E1  
 1.657946210268949E11   -2.062599618711041E1  -6.819955790165398E1  -1.100148885203953E1   5.285744032582352E1  -1.104342074518845E1   1.880590642809523E1  -1.865887817211953E1  -7.567567529164951E1  
 1.658068459657702E11   -1.935611107818326E1  -7.635194056400376E1  -1.080997582960921E1   6.023884549344415  -1.085547606748408E1  -2.794799367113233E1  -2.296954335560988E1  -8.483182037620685E1  
 1.658190709046455E11   -1.857268380444177E1  -8.880585249805579E1  -1.082254239454984E1  -4.286801683612662E1  -1.085692562504708E1  -7.670264910729473E1  -2.551392533332484E1  -5.197978870307728E1  
 1.658312958435208E11   -1.864728886629976E1  -1.040304851018634E2  -1.114868583703063E1  -9.009970596121949E1  -1.118689649816461E1  -1.241112097227137E2  -2.092483636208947E1  -4.565270721695180E1  
 1.658435207823961E11   -2.088231667051448E1  -1.201104957499697E2  -1.113067278823939E1  -1.350252243155088E2  -1.117539107218280E1  -1.688572343265372E2  -2.137866943737279E1  -6.024049346097260E1  
 1.658557457212714E11   -2.401496849623417E1  -1.184097676750711E2  -1.079606736360623E1   1.769283633306507E2  -1.085120682794537E1   1.435140569375486E2  -2.166459887745364E1  -5.032873839972084E1  
 1.658679706601467E11   -2.602675090582473E1  -1.010376207179188E2  -1.089122141711264E1   1.273514124267518E2  -1.090465294304316E1   9.411456885178299E1  -1.924380801109078E1  -5.105187180975676E1  
 1.658801955990220E11   -2.472701177638633E1  -9.217538077290158E1  -1.127747218091752E1   8.035899211116382E1  -1.130392245713915E1   4.755407918211169E1  -1.784740013573507E1  -7.038379702396857E1  
 1.658924205378973E11   -2.558598759029348E1  -7.609995161232443E1  -1.116345183925462E1   3.581082661366641E1  -1.119249974832341E1   2.938929351682579  -2.046917007351930E1  -9.356009704629631E1  
 1.659046454767726E11   -2.153119428211580E1  -6.906737259919895E1  -1.092171385124197E1  -1.275847473155329E1  -1.096019646155195E1  -4.553656654998755E1  -2.614527916015025E1  -7.917861081641748E1  
 1.659168704156479E11   -1.926054029834249E1  -8.244596531140792E1  -1.109966363163456E1  -6.122015828904863E1  -1.114610313942220E1  -9.333301306096652E1  -2.274221552007293E1  -4.781696689635754E1  
 1.659290953545232E11   -1.951063429678884E1  -9.942330387995308E1  -1.122577278220155E1  -1.062666367654347E2  -1.126165983971720E1  -1.382803648558228E2  -2.104143435920548E1  -6.298045066582094E1  
 1.659413202933985E11   -2.099743425184683E1  -9.914476007147258E1  -1.082378122671769E1  -1.531754409012534E2  -1.085634174007529E1   1.751526474433140E2  -2.236246348683855E1  -6.155934634699543E1  
 1.659535452322738E11   -2.030466415140161E1  -9.607353416909170E1  -1.067517577763032E1   1.575432526360756E2  -1.072301298532491E1   1.255820248033725E2  -2.155924181423060E1  -5.157588561532585E1  
 1.659657701711491E11   -1.888984999615800E1  -1.014186278209738E2  -1.095457416185380E1   1.085748219646316E2  -1.103246206407248E1   7.723110564375932E1  -1.900217563092064E1  -5.241813349651633E1  
 1.659779951100244E11   -1.913573642207348E1  -1.176427278316666E2  -1.110308423240212E1   6.352638782161622E1  -1.116090183113849E1   3.243447572977575E1  -1.838082529958852E1  -6.994164850174386E1  
 1.659902200488998E11   -2.089396074391165E1  -1.190726760277795E2  -1.069864467478625E1   1.649025107158170E1  -1.075610994212842E1  -1.439006078624670E1  -1.957972101117449E1  -7.574292966350890E1  
 1.660024449877751E11   -2.139446266238805E1  -1.159535681786074E2  -1.061084744278716E1  -3.305087620328569E1  -1.067018954532533E1  -6.387814389794813E1  -2.012384511541944E1  -7.311196428542266E1  
 1.660146699266504E11   -2.051412925208966E1  -1.148441163274585E2  -1.092408675601991E1  -8.086821273165219E1  -1.099044912338823E1  -1.115976357479162E2  -1.922505595074728E1  -7.492066795531470E1  
 1.660268948655257E11   -2.083192904157857E1  -1.260036023833611E2  -1.089357369131981E1  -1.262920602191681E2  -1.093841045083737E1  -1.567306893465580E2  -2.028668157900781E1  -8.306925973263644E1  
 1.660391198044010E11   -2.209964900169770E1  -1.243812841802401E2  -1.056746028724535E1  -1.750486801731948E2  -1.060128167534543E1   1.551112270445240E2  -2.073456053732781E1  -7.300621409004094E1  
 1.660513447432763E11   -2.224957896640650E1  -1.194813345028709E2  -1.068227150961474E1   1.353268866300580E2  -1.076003591086901E1   1.054497497947367E2  -1.918931147105410E1  -7.063932242677917E1  
 1.660635696821516E11   -2.115851949732181E1  -1.219018520824806E2  -1.114907136341811E1   8.873755603384774E1  -1.118512998585506E1   5.878709730765154E1  -1.749661229728403E1  -8.364496621781861E1  
 1.660757946210269E11   -2.266151778933104E1  -1.302255061241310E2  -1.097123181719303E1   4.408937004610930E1  -1.103401754202155E1   1.422097348989453E1  -1.953364640006983E1  -1.014383636415629E2  
 1.660880195599022E11   -2.339464522516878E1  -1.187395440808295E2  -1.065143028418424E1  -4.578926892965898  -1.073323881643959E1  -3.416317423515857E1  -2.213490922715253E1  -8.828095093239675E1  
 1.661002444987775E11   -2.203536631359288E1  -1.130656975786645E2  -1.079102169506749E1  -5.378451386626269E1  -1.084363780435073E1  -8.339327502146041E1  -2.021203577767639E1  -7.471402291849181E1  
 1.661124694376528E11   -2.123755975154798E1  -1.215818752989064E2  -1.107967461342040E1  -9.957077533879915E1  -1.112260414791366E1  -1.292166923502771E2  -1.783733690409539E1  -8.802748964285679E1  
 1.661246943765281E11   -2.260447343200955E1  -1.163467640304083E2  -1.074640705945134E1  -1.455305037673290E2  -1.080041522330955E1  -1.749276695557730E2  -1.913007161218799E1  -1.058033369066781E2  
 1.661369193154034E11   -2.016793146333467E1  -1.078051735914667E2  -1.055573763842736E1   1.645951984193471E2  -1.060621738007453E1   1.359731593494599E2  -2.175681731625721E1  -1.074206914667166E2  
 1.661491442542787E11   -1.769965780148867E1  -1.168786868233902E2  -1.084053196359962E1   1.154535763871624E2  -1.087462151551611E1   8.691736554093502E1  -2.241977551258599E1  -8.921036323261323E1  
 1.661613691931540E11   -1.710881251004954E1  -1.364956474066771E2  -1.104952547617526E1   7.033046353617137E1  -1.107622684612697E1   4.205997491121971E1  -2.094623447934353E1  -9.347617449693119E1  
 1.661735941320293E11   -1.836421092624071E1  -1.460083001851674E2  -1.071408929417688E1   2.325115703681056E1  -1.076274136940779E1  -5.670067287303199  -2.188031849028524E1  -8.866134398976513E1  
 1.661858190709046E11   -1.876018921942707E1  -1.484991126176564E2  -1.074338671216771E1  -2.629957658644620E1  -1.076515785603914E1  -5.511352935225428E1  -2.038789631490647E1  -8.262183499889325E1  
 1.661980440097799E11   -1.794759083436419E1  -1.528464797802097E2  -1.120238339829280E1  -7.378793626145986E1  -1.125307510978465E1  -1.027289939668836E2  -1.833597820883096E1  -8.870511470816672E1  
 1.662102689486552E11   -1.794841749490780E1  -1.734564468420569E2  -1.124175679258994E1  -1.175728742645279E2  -1.124370461343167E1  -1.461257300433418E2  -1.866731773871666E1  -1.096363958828414E2  
 1.662224938875306E11   -2.042499148045331E1   1.734214864649971E2  -1.070269160054214E1  -1.648780826139788E2  -1.073486047770553E1   1.667030346992265E2  -2.198336442548059E1  -1.033568778653687E2  
 1.662347188264059E11   -2.280507927506557E1   1.675063386461419E2  -1.066148044296646E1   1.451188656183855E2  -1.069444570277686E1   1.170865220804930E2  -1.953367551718711E1  -8.716355391403022E1  
 1.662469437652812E11   -2.530200295013666E1   1.657868031925447E2  -1.102372996358759E1   9.774616165304018E1  -1.105588402119344E1   6.877781636332836E1  -1.659468391666118E1  -1.020622376021694E2  
 1.662591687041565E11   -3.045300406113729E1   1.467171545937170E2  -1.097405493414176E1   5.297040124460676E1  -1.100027286711393E1   2.359997438918128E1  -1.677871172189347E1  -1.287002868641905E2  
 1.662713936430318E11   -3.215338139292107E1  -7.597080139774376E1  -1.070449529851659E1   4.334027584042736  -1.070247930164591E1  -2.479913660437146E1  -2.006988729313282E1  -1.481247295451329E2  
 1.662836185819071E11   -2.238930824108145E1  -1.026361453016935E2  -1.084879258590836E1  -4.475530544914011E1  -1.090277447930147E1  -7.422040759522236E1  -2.566775532819666E1  -1.381331521684672E2  
 1.662958435207824E11   -1.912385320617375E1  -1.326899786433724E2  -1.126058877972522E1  -9.035152813707475E1  -1.129184802721044E1  -1.206741050659539E2  -2.340989282419618E1  -1.143230659638283E2  
 1.663080684596577E11   -2.005777339157659E1  -1.573285740352124E2  -1.090327387020600E1  -1.353080729094613E2  -1.091590594862058E1  -1.656544272033085E2  -2.503262546436911E1  -1.251468656766218E2  
 1.663202933985330E11   -2.132568673800965E1  -1.611159240976303E2  -1.056491464520740E1   1.759200012819840E2  -1.062007487698870E1   1.452770989572168E2  -2.585119922322717E1  -9.470987539628364E1  
 1.663325183374083E11   -2.135052534894935E1  -1.618254566185542E2  -1.081112418860679E1   1.259143848206205E2  -1.082148234331097E1   9.538779347850215E1  -2.176966792475532E1  -8.889018243023057E1  
 1.663447432762836E11   -2.005836152803217E1  -1.734797482057790E2  -1.118303657209130E1   8.049479422813263E1  -1.121926646209924E1   4.919488172093786E1  -1.924655214239052E1  -1.087868766052853E2  
 1.663569682151589E11   -2.226875820689905E1   1.632110696764761E2  -1.089875744264921E1   3.505706539663687E1  -1.094648145196930E1   3.886883435520363  -2.164983593958420E1  -1.319345851104268E2  
 1.663691931540342E11   -2.630522427195863E1   1.703779268676626E2  -1.067674318902690E1  -1.368814186997439E1  -1.070179999065378E1  -4.487772739685087E1  -2.510538448804574E1  -1.111866977036117E2  
 1.663814180929096E11   -2.572013808349886E1  -1.684124443519121E2  -1.093669047976246E1  -6.219473471339450E1  -1.099024235395656E1  -9.409975494890412E1  -2.099396380341245E1  -9.795739920669645E1  
 1.663936430317849E11   -2.360670608977709E1   1.789518799218546E2  -1.107901051123420E1  -1.068630571351640E2  -1.112857156932496E1  -1.389762901274306E2  -1.922406516594585E1  -1.245956432459681E2  
 1.664058679706602E11   -2.700896862877038E1   1.624197774685040E2  -1.071419159900300E1  -1.539747721572944E2  -1.074215695051480E1   1.741588731325157E2  -2.315406321273747E1  -1.439790372618062E2  
 1.664180929095355E11   -2.990899100679522E1  -1.642126160198937E2  -1.065708757776078E1   1.564227210780969E2  -1.068353993027776E1   1.237944261223343E2  -2.627088024495890E1  -1.049856284624551E2  
 1.664303178484108E11   -2.513077891044738E1  -1.584723923052478E2  -1.104000646395077E1   1.092209038698895E2  -1.109001178922553E1   7.645402489464000E1  -1.980184504490620E1  -1.002372813043933E2  
 1.664425427872861E11   -2.621657776479339E1   1.669106556934508E2  -1.092858979313346E1   6.452721971431993E1  -1.099080815046614E1   3.155286832035517E1  -1.815353693290879E1  -1.325931802496091E2  
 1.664547677261614E11   -3.873844750069456E1  -1.346303536750445E2  -1.056846850904603E1   1.645439677626753E1  -1.062406479057048E1  -1.652217159930321E1  -2.081945388981948E1  -1.593034361955978E2  
 1.664669926650367E11   -2.435828903930898E1  -1.098964119301301E2  -1.062754658596022E1  -3.304792829665111E1  -1.068116019679923E1  -6.611262080583533E1  -2.692676122963509E1  -1.620666539424572E2  
 1.664792176039120E11   -2.016958411119261E1  -1.420406562567917E2  -1.101170392151103E1  -7.984790673556874E1  -1.104858319632094E1  -1.131784494098429E2  -2.583340682893249E1  -1.247360860235371E2  
 1.664914425427873E11   -2.079364837049433E1  -1.721808601153638E2  -1.084018812381699E1  -1.252463449059500E2  -1.088600946233444E1  -1.582821857214382E2  -2.517622540867884E1  -1.482401992762786E2  
 1.665036674816626E11   -2.406246016645531E1  -1.788289268571390E2  -1.059351819923302E1  -1.740519173621208E2  -1.063209954693437E1   1.527104175717479E2  -3.294890268426342E1  -1.342336119634961E2  
 1.665158924205379E11   -2.449417971559129E1  -1.597627553824887E2  -1.076955523210145E1   1.365227385914599E2  -1.082317328186783E1   1.039317127806507E2  -2.606689379620114E1  -7.872696309347970E1  
 1.665281173594132E11   -2.123641566482207E1  -1.666084770731047E2  -1.109038645279707E1   9.116486981807776E1  -1.116160884025960E1   5.775747662180122E1  -2.115323684612186E1  -1.061509246991636E2  
 1.665403422982885E11   -2.236913653828070E1   1.718662578786606E2  -1.074995077433960E1   4.551429957598797E1  -1.080520994547506E1   1.197080891082439E1  -2.265645695443960E1  -1.344227099809846E2  
 1.665525672371638E11   -2.510327549692170E1  -1.781155903415353E2  -1.054725553752462E1  -3.807022374201611  -1.062138483253585E1  -3.757706161702706E1  -2.610465007508876E1  -1.219408626521204E2  
 1.665647921760391E11   -2.248078972974949E1  -1.617969107303997E2  -1.086353890396364E1  -5.280166350415929E1  -1.093000376294847E1  -8.593255049645221E1  -2.224044921198322E1  -1.067601223884075E2  
 1.665770171149144E11   -1.963212006960539E1   1.777781340699443E2  -1.101029962170538E1  -9.749233607142149E1  -1.107296333081171E1  -1.310453451842207E2  -1.939373498583465E1  -1.341054679525133E2  
 1.665892420537897E11   -2.188969590952714E1   1.547366482075555E2  -1.062363588133925E1  -1.447876548207049E2  -1.070656599214064E1  -1.776995559023142E2  -2.155181725387080E1  -1.662230342200733E2  
 1.666014669926650E11   -2.606186198444622E1   1.745973457791309E2  -1.056561269470236E1   1.655813577642003E2  -1.064384954257447E1   1.324390311016388E2  -2.749030448700603E1  -1.764245663446159E2  
 1.666136919315403E11   -2.066257779853202E1  -1.681310169518737E2  -1.095832981006338E1   1.175833067039917E2  -1.102973018139814E1   8.419022852519854E1  -2.803952702521046E1  -1.329854482810377E2  
 1.666259168704157E11   -1.778321917647892E1   1.644044639081771E2  -1.100941837255521E1   7.224418047368546E1  -1.108691345016276E1   3.941156755278580E1  -2.417773103973550E1  -1.619614327815814E2  
 1.666381418092910E11   -1.866496091630257E1   1.369912933369288E2  -1.073642595336755E1   2.460405754845759E1  -1.078985654006830E1  -8.046213476217364  -2.859850017258056E1   1.372254266937080E2  
 1.666503667481663E11   -2.232802159177070E1   1.218850708318310E2  -1.081166694971865E1  -2.439138631696034E1  -1.088683719000732E1  -5.739665663005832E1  -3.053076457362557E1   3.710661233506943E-1  
 1.666625916870416E11   -2.369045006506284E1   1.464339767352735E2  -1.119768575272553E1  -7.073932863485423E1  -1.124441057864544E1  -1.037621144092866E2  -2.404799237366124E1  -7.262504192597045E1  
 1.666748166259169E11   -2.048576676361373E1   1.307659259940551E2  -1.098425486612285E1  -1.160173037111165E2  -1.106820190287723E1  -1.483444673844687E2  -2.544718305435551E1  -1.225720350193677E2  
 1.666870415647922E11   -2.121958717999583E1   1.030773389827088E2  -1.069913990584410E1  -1.642362037492041E2  -1.075539308100223E1   1.638376004156557E2  -4.203928715031312E1  -8.766745957048029E1  
 1.666992665036675E11   -2.420799997761662E1   7.461747687382623E1  -1.080698377113393E1   1.468097376426548E2  -1.086379524891903E1   1.147864281992184E2  -2.361326799286535E1  -4.296569824403674E1  
 1.667114914425428E11   -3.053226737471705E1   6.819836830397216E1  -1.102306102283487E1   1.003000046401408E2  -1.108540265900572E1   6.891987534950613E1  -1.881874351853162E1  -8.084837862968777E1  
 1.667237163814181E11   -3.088937247819634E1   4.769030403865909E1  -1.071770711654227E1   5.408513327100513E1  -1.075011912170741E1   2.294490455769283E1  -1.906714661614754E1  -1.149729815224999E2  
 1.667359413202934E11   -2.994037025192919E1  -3.309180778182815E1  -1.048578224194730E1   4.904286651319045  -1.054606603806649E1  -2.564755552198245E1  -2.227257306086805E1  -1.325826786654046E2  
 1.667481662591687E11   -2.483833615251518E1  -9.499760404031748E1  -1.075045139844316E1  -4.400600827988612E1  -1.082986899992510E1  -7.467794044013748E1  -2.429407306569471E1  -1.132511819254951E2  
 1.667603911980440E11   -2.158476865071494E1  -1.413875885101352E2  -1.090195193785621E1  -8.953699382583551E1  -1.096341122971140E1  -1.198316043635256E2  -2.095028667181560E1  -1.205491234662382E2  
 1.667726161369193E11   -2.238818944100703E1  -1.688771279078406E2  -1.050714851373672E1  -1.364136124315579E2  -1.055483287386147E1  -1.664887197670669E2  -2.253513396572850E1  -1.401536343061554E2  
 1.667848410757946E11   -2.291771227342576E1  -1.709855041190667E2  -1.036789063686039E1   1.740469618116751E2  -1.043287690586050E1   1.444406925610987E2  -2.464502203571903E1  -1.325181937027544E2  
 1.667970660146699E11   -2.096033251088839E1  -1.699213015689488E2  -1.061392661846256E1   1.255975419571940E2  -1.065728279680128E1   9.564868486699238E1  -2.272388380820126E1  -1.272658147566969E2  
 1.668092909535452E11   -1.873660825598216E1   1.708148615079412E2  -1.066332580300857E1   7.934073115261150E1  -1.070686298030980E1   4.950916505854174E1  -2.195402011996592E1  -1.508360405409170E2  
 1.668215158924205E11   -1.884814701954300E1   1.527272604153012E2  -1.048310871782711E1   3.089452703808976E1  -1.052921609095867E1   1.140551870979739  -2.808062006809480E1  -1.723858590945083E2  
 1.668337408312958E11   -1.957436565515864E1   1.438190188988044E2  -1.061908470002188E1  -1.797145548557139E1  -1.064437663498231E1  -4.807621710958270E1  -2.874860927123267E1  -9.322959813769741E1  
 1.668459657701711E11   -1.875366567957181E1   1.392537836756022E2  -1.100804589874017E1  -6.541654957848998E1  -1.104600398286298E1  -9.478768267239020E1  -2.089519902117155E1  -1.115798594902338E2  
 1.668581907090465E11   -1.761750251889009E1   1.172017250997370E2  -1.089779743744272E1  -1.104600963796737E2  -1.091330257174605E1  -1.397272163571461E2  -1.937797376233817E1  -1.543965954900965E2  
 1.668704156479218E11   -1.890833519955639E1   8.930287386499042E1  -1.063892491944635E1  -1.586870472734789E2  -1.071168152411170E1   1.718655781351121E2  -2.312915024244458E1   1.567473776007780E2  
 1.668826405867971E11   -2.317414337643727E1   5.862505882931589E1  -1.078599808092740E1   1.524499212434395E2  -1.084516459199394E1   1.229828331297086E2  -3.322684322850819E1   4.036341005570061E1  
 1.668948655256724E11   -3.856965115079424E1   5.696959301155125E1  -1.109414406048744E1   1.062664197391011E2  -1.115023596467752E1   7.683615619080796E1  -2.363559093105883E1  -7.338142956411937E1  
 1.669070904645477E11   -3.093480179714098E1   1.358433889972002E2  -1.084826233142207E1   6.055782193922942E1  -1.088898066215570E1   3.151874603169322E1  -2.254120200629456E1  -1.182675600246327E2  
 1.669193154034230E11   -3.095346200458826E1   1.445070737166007E2  -1.063567493524136E1   1.104487638630569E1  -1.070958058349237E1  -1.763733013662675E1  -2.608911627112523E1  -1.217531905729282E2  
 1.669315403422983E11   -2.653914594451802E1   1.714612536745105E2  -1.093878851766953E1  -3.752807210476948E1  -1.095726394987147E1  -6.667323764498244E1  -2.253001864786069E1  -9.985681230794476E1  
 1.669437652811736E11   -2.071053306808854E1   1.535626234638109E2  -1.110021939156904E1  -8.334001892908250E1  -1.112604871266983E1  -1.122451785938111E2  -1.844447642966949E1  -1.272034284795345E2  
 1.669559902200489E11   -1.924495541328973E1   1.216755485990674E2  -1.087633805740635E1  -1.300225498638459E2  -1.090098165808714E1  -1.583913233850460E2  -1.935370097030411E1  -1.654887817992486E2  
 1.669682151589242E11   -2.066969823744869E1   9.551477412626670E1  -1.079193847317633E1  -1.784855101038127E2  -1.082977587047805E1   1.526394343523749E2  -2.657252552591731E1   1.632527812323500E2  
 1.669804400977995E11   -2.375647298074932E1   8.703261355728742E1  -1.105732646654949E1   1.336432864361405E2  -1.112343776683077E1   1.044159765668670E2  -2.727408539411715E1  -8.972964405194487E1  
 1.669926650366748E11   -2.288501975383457E1   8.585897843233146E1  -1.108906865425774E1   8.804163697265830E1  -1.112019048414808E1   5.923025482403460E1  -1.933935485959192E1  -1.251656752776762E2  
 1.670048899755501E11   -2.281873314368076E1   5.479356629544136E1  -1.090954096088736E1   4.100949459758954E1  -1.098169540222870E1   1.165332462535389E1  -1.852935109964504E1  -1.634962778167172E2  
 1.670171149144254E11   -2.613479006578818E1   6.479384214776677  -1.095205020700277E1  -7.202305589225861  -1.099350235891955E1  -3.646654272059595E1  -2.154105881293459E1   1.650591797549940E2  
 1.670293398533007E11   -2.998560012286131E1  -9.297703476554653E1  -1.109636320545739E1  -5.347622290444436E1  -1.110708869011852E1  -8.310133516986409E1  -2.724478207384307E1   1.667242224769418E2  
 1.670415647921760E11   -2.707389623024115E1  -1.746826105559680E2  -1.083735829144514E1  -1.008610770519087E2  -1.086346615709369E1  -1.292791858442825E2  -2.663370403732689E1   1.675073235028572E2  
 1.670537897310513E11   -2.611143945565232E1   1.549581647272190E2  -1.069468952117173E1  -1.493166874194279E2  -1.070252987955733E1  -1.784994987069392E2  -3.011444569522113E1   1.320659196099740E2  
 1.670660146699266E11   -2.626147729073356E1   1.486195996934073E2  -1.084770000161245E1   1.615373012013723E2  -1.088007412265787E1   1.318801146948403E2  -3.673268203993486E1  -7.205953357819121  
 1.670782396088019E11   -2.319147150363246E1   1.494428522264138E2  -1.116092294212613E1   1.157032588268991E2  -1.119827291652968E1   8.615179864364961E1  -2.611501269347843E1  -8.504277558198096E1  
 1.670904645476773E11   -2.107282345886654E1   1.249953847948939E2  -1.099176619388174E1   7.014607969179991E1  -1.102124974027390E1   3.969965187371823E1  -2.468122684234398E1  -1.311398993717646E2  
 1.671026894865526E11   -2.208909141965944E1   1.030874230177627E2  -1.079661317381353E1   2.149966089170450E1  -1.083958754722236E1  -8.270962154634761  -3.150641316190721E1  -1.492503560239300E2  
 1.671149144254279E11   -2.441023634626472E1   9.395583968499905E1  -1.098662114551184E1  -2.705986864591075E1  -1.099777923295392E1  -5.781358464838136E1  -2.672253437936168E1  -7.430852974892655E1  
 1.671271393643032E11   -2.361016046123624E1   1.070651692941612E2  -1.124328571821928E1  -7.418619501104683E1  -1.126057141413638E1  -1.036457764091605E2  -1.957895952861181E1  -1.027538344319822E2  
 1.671393643031785E11   -2.127155644929721E1   8.356637307359486E1  -1.113007719748820E1  -1.206183389444787E2  -1.116997446391997E1  -1.502646380315262E2  -1.824783321406344E1  -1.387880463221271E2  
 1.671515892420538E11   -2.238006202397835E1   4.526722604977012E1  -1.115185138236682E1  -1.682040207946109E2  -1.120105001681157E1   1.612635358098596E2  -2.064243014474990E1  -1.661671270154197E2  
 1.671638141809291E11   -2.843211182587381E1  -1.773523714758120E1  -1.142346466729921E1   1.451009524458456E2  -1.146707947832238E1   1.143055921960163E2  -2.392029184114926E1  -1.503376533567836E2  
 1.671760391198044E11   -3.210519518860459E1  -1.739200606142690E2  -1.123567069839404E1   9.969059385664887E1  -1.125645271264622E1   6.956993818049220E1  -2.008937138516470E1  -1.512440912157717E2  
 1.671882640586797E11   -2.850868929004895E1   1.192605814457381E2  -1.098238738612412E1   5.146866474435374E1  -1.101506407485781E1   2.092213415572282E1  -1.923279800200955E1  -1.749979228847011E2  
 1.672004889975550E11   -3.861489639501979E1   7.718506548516351E1  -1.110866054241975E1   2.739784610963429  -1.114210064408343E1  -2.820875400165920E1  -2.153424135131893E1   1.645911767962224E2  
 1.672127139364303E11   -2.612445227212668E1  -1.586102020819734E2  -1.140846000216228E1  -4.327874269012936E1  -1.144252366562063E1  -7.411504921200121E1  -2.438512041576585E1   1.782318952105911E2  
 1.672249388753056E11   -2.003042952920871E1   1.576107056466634E2  -1.122071351303118E1  -8.879103042882824E1  -1.127514119462806E1  -1.197823051042129E2  -2.089789533092525E1   1.735675637959406E2  
 1.672371638141809E11   -1.904861451572622E1   1.196739824848391E2  -1.105889093859359E1  -1.365709467629694E2  -1.106450996362524E1  -1.677851403229047E2  -2.095894216675354E1   1.418268339597514E2  
 1.672493887530562E11   -2.152702284775383E1   9.369188861452635E1  -1.114045037562774E1   1.757216037868906E2  -1.118012242361496E1   1.445695947111001E2  -2.640074862757303E1   1.054225266818678E2  
 1.672616136919316E11   -2.441229459652448E1   1.083343858018545E2  -1.107745699234864E1   1.298857736366876E2  -1.110492936948763E1   9.869685691313507E1  -3.550894533012843E1  -1.510384845582449E2  
 1.672738386308069E11   -2.146693125281990E1   1.059177921709831E2  -1.076899602103124E1   8.210292846707893E1  -1.079203297291126E1   5.070311491392720E1  -2.482277486791212E1  -1.754235751392654E2  
 1.672860635696822E11   -2.099074823254545E1   8.735300928595667E1  -1.074618912323321E1   3.263544275966596E1  -1.077706539744907E1   1.663213102769262  -2.485136076324087E1   1.448669398092363E2  
 1.672982885085575E11   -2.355922101095515E1   6.956239901502289E1  -1.101197782858517E1  -1.523977961963570E1  -1.105555528046375E1  -4.640251506223464E1  -3.629078423189420E1   1.001150866172108E2  
 1.673105134474328E11   -2.564258093669216E1   9.764984273784167E1  -1.104158780893085E1  -6.072623055856559E1  -1.107098670269552E1  -9.164266252860780E1  -2.646329390702791E1  -1.315008818713022E2  
 1.673227383863081E11   -2.140671518021487E1   9.292945738876665E1  -1.079126257121881E1  -1.080975840949818E2  -1.080027591295618E1  -1.392766387996703E2  -2.109225768218943E1  -1.724643554563374E2  
 1.673349633251834E11   -2.088918685082743E1   6.785471285115450E1  -1.080414806961742E1  -1.569049941861304E2  -1.084281704013748E1   1.723277498487724E2  -2.073731936166655E1   1.472300203861579E2  
 1.673471882640587E11   -2.491432901783821E1   4.568307731502129E1  -1.099086164752103E1   1.559359629605977E2  -1.100547363007222E1   1.254244111252200E2  -2.514000242679362E1   1.141189004583529E2  
 1.673594132029340E11   -2.753871883280441E1   8.451912441264442E1  -1.079583108842921E1   1.103399232810690E2  -1.080988169921215E1   7.934602318570587E1  -3.058103299543856E1   1.462613852883630E2  
 1.673716381418093E11   -2.352025728572747E1   7.988155752828013E1  -1.059300830155643E1   6.139769780603577E1  -1.064675308086736E1   3.056095876994128E1  -2.591520794464461E1   1.499243881721776E2  
 1.673838630806846E11   -2.392211312806719E1   5.538729285404334E1  -1.067690210356969E1   1.246859124677113E1  -1.071231217063713E1  -1.746590089640425E1  -2.562572626890393E1   1.237700054243148E2  
 1.673960880195599E11   -3.166837546223824E1   4.851653727343181E1  -1.076867494524949E1  -3.386045775424778E1  -1.079480901850415E1  -6.436520433447669E1  -2.992743205110967E1   1.190048605567577E2  
 1.674083129584352E11   -2.701108524913360E1   1.154350195952798E2  -1.055824395283152E1  -8.143781828432354E1  -1.061440825874086E1  -1.121762684257336E2  -2.636397706283621E1   1.351766026289122E2  
 1.674205378973105E11   -2.188910313094611E1   9.990388188660039E1  -1.055376890179216E1  -1.304891491998130E2  -1.060269437999668E1  -1.610619023431680E2  -2.347312569338399E1   1.036492058263875E2  
 1.674327628361858E11   -2.045676707496167E1   7.485676559653473E1  -1.080035541709855E1  -1.789165934445763E2  -1.087086689451452E1   1.507835063538362E2  -2.352317621712188E1   5.282897469882225E1  
 1.674449877750611E11   -2.202857522582573E1   6.006254479048523E1  -1.095874574853764E1   1.350201570316107E2  -1.097044591671992E1   1.047104373125039E2  -2.621399767376337E1  -1.908772815871076E1  
 1.674572127139364E11   -2.205683203265290E1   5.729018534872436E1  -1.074756660256725E1   8.819810350857085E1  -1.079577397239328E1   5.760765071735463E1  -2.738374883641028E1  -1.101643842586142E2  
 1.674694376528117E11   -2.172741427037321E1   4.400746153939926E1  -1.069803450690270E1   3.975099188200667E1  -1.075105352714037E1   8.648835164407041  -2.638912876346163E1   1.754386903480563E2  
 1.674816625916870E11   -2.380082453067220E1   2.093069062115495E1  -1.098358450573466E1  -8.545323813648112  -1.105246137695007E1  -3.955929723895378E1  -2.881000725700390E1   1.127973016373226E2  
 1.674938875305624E11   -3.410505450792737E1   3.917256216514072E1  -1.113086669828884E1  -5.406319274415521E1  -1.115850112658477E1  -8.507064946510339E1  -5.389918052991138E1   1.487733622757189E2  
 1.675061124694377E11   -2.517823195216591E1   7.839963035170597E1  -1.092904515202653E1  -1.016753391737941E2  -1.095043649948565E1  -1.326439319379466E2  -2.941675820116958E1   1.711403899276990E2  
 1.675183374083130E11   -2.224354035701261E1   5.165302272660076E1  -1.102532337064405E1  -1.503173806682515E2  -1.104530136687493E1   1.790461908177438E2  -2.669019835207181E1   1.202377482469043E2  
 1.675305623471883E11   -2.406049962232009E1   1.682977648310638E1  -1.128088953245858E1   1.631035579758309E2  -1.131180287287742E1   1.324781321968242E2  -3.030375210207076E1   6.759027313234392E1  
 1.675427872860636E11   -3.369677317704161E1   2.168623911034182E1  -1.106554407621730E1   1.174130478224748E2  -1.114786165724563E1   8.665432390908805E1  -4.509608543393053E1   1.077842024109182E2  
 1.675550122249389E11   -2.941985938478371E1   6.979119629255872E1  -1.093691567481971E1   6.849572154158150E1  -1.097219106136053E1   3.798746103515131E1  -3.196397763876306E1   1.233330568175451E2  
 1.675672371638142E11   -2.677779535597454E1   4.907657950700292E1  -1.116587144490021E1   1.979509525465680E1  -1.119841547618684E1  -1.025225408764096E1  -2.927113264639532E1   6.853666207775005E1  
 1.675794621026895E11   -3.286354374422892E1   1.534478792908414E1  -1.139769833451351E1  -2.549612872260794E1  -1.143556068215486E1  -5.566232817743398E1  -3.311031426152628E1  -1.426835283654970E1  
 1.675916870415648E11   -3.188964985964054E1   1.244484959487213E2  -1.111015615527074E1  -7.173089087855672E1  -1.113377050244737E1  -1.020234547880910E2  -3.629690852248825E1  -1.466518166601242E2  
 1.676039119804401E11   -2.555777333207089E1   9.622313278959852E1  -1.099989147461560E1  -1.211460098776325E2  -1.106089676574520E1  -1.509887158568250E2  -3.151793401903135E1   1.181285545185601E2  
 1.676161369193154E11   -2.665528505059667E1   7.250339382612394E1  -1.130351898098431E1  -1.688510117189094E2  -1.139168520804570E1   1.614123398806342E2  -2.892953057832829E1   3.251899558985382E1  
 1.676283618581907E11   -2.766903495398280E1   1.130572554623128E2  -1.136327067557248E1   1.460109777534483E2  -1.141632538300054E1   1.161794301562691E2  -2.738814884904521E1  -5.992400650354277E1  
 1.676405867970660E11   -2.099952348397296E1   1.031893816152913E2  -1.115972490613860E1   9.823212239049259E1  -1.120312401156688E1   6.827628368516092E1  -2.596255085289359E1  -1.362393877029149E2  
 1.676528117359413E11   -1.881756729500741E1   7.568398533808573E1  -1.125311885137276E1   5.000058415295342E1  -1.130871773092894E1   2.040632168596936E1  -2.588086819490598E1   1.579684940940043E2  
 1.676650366748166E11   -2.000178199859424E1   4.467022987964944E1  -1.150555115743478E1   4.144570807770704  -1.157424659645401E1  -2.612198320038266E1  -2.999369426355213E1   9.462125769789158E1  
 1.676772616136919E11   -2.620654991623366E1   3.979101751550549E1  -1.124751382044733E1  -4.114288159719035E1  -1.126091455667419E1  -7.062816248569280E1  -4.433865660567722E1   7.381589511557654E1  
 1.676894865525672E11   -2.497215700009059E1   7.741553709057635E1  -1.095880707376924E1  -8.995504974098216E1  -1.100727050486898E1  -1.196968968694867E2  -3.861352683796993E1   1.519832787080674E2  
 1.677017114914425E11   -2.181748074421602E1   6.980834686051333E1  -1.108948389529196E1  -1.382775069811180E2  -1.111141918247507E1  -1.677546392179617E2  -3.762241978985569E1   9.314461787718837E1  
 1.677139364303178E11   -2.367551609136643E1   5.672096546863853E1  -1.115842352795061E1   1.762110764542737E2  -1.119811430669419E1   1.463624061116145E2  -3.789409447534710E1  -7.712884382454935E1  
 1.677261613691932E11   -2.338102990937495E1   8.503538039387510E1  -1.084203042441140E1   1.290512218753392E2  -1.086340315713026E1   9.906382021854580E1  -2.891959649364463E1  -1.528046882455626E2  
 1.677383863080685E11   -1.907562643513736E1   8.247754496814039E1  -1.073541295204903E1   7.957085094776446E1  -1.079904402192805E1   4.984216803756388E1  -2.457096662879533E1   1.595315494791198E2  
 1.677506112469438E11   -1.725833350515846E1   6.435341275236300E1  -1.098198870737654E1   3.149097695235833E1  -1.101077501717467E1   1.560866092669866  -2.357920372141894E1   1.078640439230655E2  
 1.677628361858191E11   -1.810757160751757E1   5.208084979051544E1  -1.103261737337824E1  -1.390393977159292E1  -1.105975790706880E1  -4.343044341544113E1  -2.703769410132398E1   5.269857094898121E1  
 1.677750611246944E11   -1.749312066636312E1   5.252469892230882E1  -1.070348241057060E1  -6.133254124253744E1  -1.075803238987347E1  -9.113841619749645E1  -3.838193670268271E1  -1.469126839994540E1  
 1.677872860635697E11   -1.631525848069146E1   4.357791650487521E1  -1.068058721363640E1  -1.103514633353880E2  -1.071203826694888E1  -1.401913600274345E2  -3.287485712256052E1   1.645426609993000E2  
 1.677995110024450E11   -1.609582239737020E1   2.899326852443827E1  -1.090305076688209E1  -1.589631274313119E2  -1.095843776937615E1   1.721355194100801E2  -2.818146264086872E1   1.026347356380187E2  
 1.678117359413203E11   -1.798554251503636E1   1.983353767161864E1  -1.085960276490944E1   1.557912004898322E2  -1.087568717220622E1   1.262305077526604E2  -3.086613442468857E1   5.077733488683975E1  
 1.678239608801956E11   -1.795533271451041E1   2.798259619856942E1  -1.062603649196205E1   1.070734975020412E2  -1.067474025179802E1   7.708597599901174E1  -3.932318483278497E1  -2.373850556159803E1  
 1.678361858190709E11   -1.627091936960080E1   2.041599693382100E1  -1.078874188654440E1   5.764369575965559E1  -1.082909060774218E1   2.880860859506107E1  -3.539774534176750E1  -1.685719569416139E2  
 1.678484107579462E11   -1.617001449071949E1   1.690948818214916E-1  -1.108516229222168E1   1.127082585865757E1  -1.113661264977142E1  -1.791475883301587E1  -3.510135978248266E1   1.464367979158114E2  
 1.678606356968215E11   -1.969970589749757E1  -1.405337036979214E1  -1.090504561394587E1  -3.449717964020148E1  -1.093855560360986E1  -6.334623581067489E1  -3.056583608042297E1   1.743388719086537E2  
 1.678728606356968E11   -2.233971140778851E1   1.087926331500897E1  -1.069864441814267E1  -8.355471894212245E1  -1.075436368416760E1  -1.121725024006752E2  -2.497364342283816E1   1.525310400912235E2  
 1.678850855745721E11   -1.866375031836540E1   2.076166791710230E1  -1.092774767378318E1  -1.322428269937320E2  -1.099120054864122E1  -1.609401855260529E2  -2.202796919509841E1   1.223460797747102E2  
 1.678973105134475E11   -1.733182353054177E1   1.385666615766035  -1.120091301453127E1  -1.779462823188632E2  -1.122179683468303E1   1.531646235412024E2  -2.265048738473698E1   9.212052330994645E1  
 1.679095354523228E11   -1.940514088408277E1  -9.797593546361442  -1.088987411380526E1   1.359388700554169E2  -1.094137982386471E1   1.063917780059732E2  -2.386264203191113E1   8.785297096058805E1  
 1.679217603911981E11   -2.065448903465339E1   2.686883203864594  -1.089177078168332E1   8.586360240207434E1  -1.096631680511332E1   5.674661189680439E1  -2.252813731412098E1   8.187783170323539E1  
 1.679339853300734E11   -1.823110026904794E1   6.340066380294534  -1.137929080481294E1   3.826069530391585E1  -1.141006400631174E1   9.246142122255092  -2.098392601107017E1   6.059057833332877E1  
 1.679462102689487E11   -1.750252678323610E1  -1.106993928708698E1  -1.137735095091090E1  -5.222387317882505  -1.140163458844068E1  -3.377939813719367E1  -2.306488088078970E1   3.392560210673965E1  
 1.679584352078240E11   -1.898123162774533E1  -1.471977284391759E1  -1.086632400493473E1  -5.210614891292628E1  -1.093554083620774E1  -8.179037442735687E1  -2.568460852205025E1   3.250896109967423E1  
 1.679706601466993E11   -1.833556616504464E1  -9.205464087497594  -1.084517802984290E1  -1.024585500197782E2  -1.088323072523857E1  -1.319872453754306E2  -2.766792094069905E1   2.780875666967996E1  
 1.679828850855746E11   -1.620644471290313E1  -1.804379721159060E1  -1.125501694445903E1  -1.502548137990510E2  -1.129845949804080E1  -1.794991995518709E2  -2.850354519491915E1   3.204450310384281E1  
 1.679951100244499E11   -1.594142707665522E1  -4.222859895940386E1  -1.126306822882009E1   1.657595377942525E2  -1.130552414550123E1   1.364822952444768E2  -3.550003848073602E1   3.979855741369514E1  
 1.680073349633252E11   -1.868224971064294E1  -6.144401402980849E1  -1.090061716096622E1   1.181744822504662E2  -1.094959960619377E1   8.819174514575036E1  -2.651848381415330E1   9.336932611368987E1  
 1.680195599022005E11   -2.247249684224864E1  -5.790995427998178E1  -1.094900107751188E1   6.922078662748207E1  -1.100737409028599E1   3.919087868837834E1  -2.207662519603490E1   6.769721350360464E1  
 1.680317848410758E11   -2.127847492206636E1  -4.644612150881069E1  -1.121635484427748E1   2.324740328180704E1  -1.128073776594736E1  -7.322200955051848  -2.140624084491855E1   3.625739163980926E1  
 1.680440097799511E11   -2.196178340014194E1  -6.584033878947625E1  -1.089746767131346E1  -2.252117326143230E1  -1.095734192758629E1  -5.301241525577522E1  -2.541241232714357E1   2.525900683058555E1  
 1.680562347188264E11   -2.590082170821698E1  -7.184700549458832E1  -1.067800395431980E1  -7.185625566245983E1  -1.073547753920480E1  -1.021183427649352E2  -2.501998422142775E1   4.734122699776186E1  
 1.680684596577017E11   -2.818319248865651E1  -4.529051207459205E1  -1.085655979659225E1  -1.207075193369152E2  -1.091545257840924E1  -1.513120429732469E2  -2.157211891431257E1   4.170073773280748E1  
 1.680806845965770E11   -2.658283856586813E1  -4.955900250565994E1  -1.095360735366983E1  -1.660831839857540E2  -1.101294507905609E1   1.632401435859248E2  -2.064659955623989E1   1.664528193457737E1  
 1.680929095354523E11   -3.216814727188591E1  -3.528329259396613E1  -1.068453974887876E1   1.461172907071544E2  -1.072818339137001E1   1.152319889213509E2  -2.303996571091121E1   1.874227965629917E-1  
 1.681051344743276E11   -2.717133101851477E1   7.418756205464529  -1.065257794934524E1   9.690922278777319E1  -1.072814622411539E1   6.576329220407349E1  -2.605921770025233E1   4.640148376584888  
 1.681173594132029E11   -2.242688870168334E1  -3.079087589473966  -1.104594494841063E1   4.824512979685625E1  -1.108418652337822E1   1.713151890216184E1  -2.478860565574150E1   2.765065406897838E1  
 1.681295843520783E11   -2.100751061344102E1  -3.213831018993663E1  -1.124785509667330E1   3.868374473560306  -1.128629970581400E1  -2.749857273715183E1  -2.213568429864444E1   1.011661807063266E1  
 1.681418092909536E11   -2.400407087476483E1  -4.572896350516106E1  -1.092031561988169E1  -4.341034324148775E1  -1.095097223468546E1  -7.426674566923113E1  -2.437407480069164E1   1.032026919500476  
 1.681540342298289E11   -2.526848043398953E1  -3.398818848888050E1  -1.093697694655444E1  -9.262254474593547E1  -1.098301249215421E1  -1.234296374837926E2  -2.475511975061244E1   1.641927309442423E1  
 1.681662591687042E11   -2.238980781675971E1  -3.419308317875755E1  -1.138049337324342E1  -1.396318634147132E2  -1.144048987983396E1  -1.703640090125701E2  -2.113799794093799E1   1.387961072318429E1  
 1.681784841075795E11   -2.261807149086331E1  -6.452856865968290E1  -1.122810911119902E1   1.761083599441485E2  -1.127817452593083E1   1.455384603986078E2  -2.071758260420034E1  -1.473356241763352E1  
 1.681907090464548E11   -2.929170756978375E1  -7.425091632254330E1  -1.083231699164144E1   1.279523666429351E2  -1.087808441524548E1   9.712915040765989E1  -2.451085125599457E1  -2.575569891537998E1  
 1.682029339853301E11   -3.015013389543185E1  -2.061947901347686E1  -1.090677758570956E1   7.898405558460766E1  -1.096175759160073E1   4.823410044149472E1  -2.621846491056029E1  -2.169318054825151  
 1.682151589242054E11   -2.460507961428489E1  -3.098260560850547E1  -1.114953569974951E1   3.261839279024682E1  -1.118979259268750E1   1.950867825425503  -2.258825444310450E1  -4.077418400169015E-1  
 1.682273838630807E11   -2.672228679316492E1  -5.831448905778250E1  -1.082723640490040E1  -1.376616220828417E1  -1.086085201640600E1  -4.418625561550138E1  -2.301673365116974E1  -1.761414967007895E1  
 1.682396088019560E11   -3.132815991998161E1  -4.184658452738685E1  -1.059730401792060E1  -6.277673810880792E1  -1.063523566425053E1  -9.370229812495342E1  -2.432011832279650E1  -1.347586539435763E1  
 1.682518337408313E11   -2.906354149348953E1  -2.301971712194078E1  -1.081828603572882E1  -1.119674062366048E2  -1.084202169653468E1  -1.427765386325702E2  -2.286559456656731E1  -4.195836539942225  
 1.682640586797066E11   -2.739029580989050E1  -4.517289521348233E1  -1.113287930435177E1  -1.577332112859899E2  -1.118011768944741E1   1.709702035625381E2  -1.958666210565373E1  -1.613226250955224E1  
 1.682762836185819E11   -4.606726365822060E1  -1.437444955120522E2  -1.084021770238197E1   1.561873302986281E2  -1.088022417839111E1   1.253255729173894E2  -1.959369862105159E1  -4.303909073598336E1  
 1.682885085574572E11   -2.543622416491276E1   5.861158130325586E1  -1.068336000398008E1   1.072212262707089E2  -1.071823748851011E1   7.632557837641014E1  -2.188585023380405E1  -6.347307921514949E1  
 1.683007334963325E11   -2.035711165954666E1   2.211345043695701E1  -1.091864533831507E1   5.855811446518325E1  -1.096728875544361E1   2.764869022993599E1  -2.532942150929603E1  -6.353920961308479E1  
 1.683129584352078E11   -2.003192257829170E1  -1.413649694094814E1  -1.094727117490222E1   1.358433478328750E1  -1.096766273706525E1  -1.818436099862258E1  -2.456674111740980E1  -6.759063810406650E1  
 1.683251833740831E11   -2.398284538803881E1  -2.746324566550736E1  -1.062760713409112E1  -3.503363758026546E1  -1.070442447756653E1  -6.554605173997294E1  -2.783423907306792E1  -9.346128974234780E1  
 1.683374083129584E11   -2.435994279210676E1   3.871635960675280  -1.076006549078995E1  -8.476413172681689E1  -1.081772191116304E1  -1.153687796780884E2  -3.587872885287491E1  -1.025244218724423E2  
 1.683496332518337E11   -1.950260133118507E1  -1.757460041312618  -1.124501034318625E1  -1.321234832597520E2  -1.129729281096280E1  -1.626229980054842E2  -3.799009990757081E1  -1.287620329111713E1  
 1.683618581907091E11   -1.883132909147556E1  -2.853043798111634E1  -1.117346454753922E1  -1.767957444664529E2  -1.120701764242675E1   1.524476880602118E2  -3.625163522750790E1  -7.824205238099142E1  
 1.683740831295844E11   -2.117132109374446E1  -4.160304824814097E1  -1.092521426354868E1   1.351404771259485E2  -1.096424945407515E1   1.049287600621622E2  -3.103829070231476E1   1.285335501391440E2  
 1.683863080684597E11   -2.350054217089569E1  -3.123821767463712E1  -1.106718638832395E1   8.645701373888903E1  -1.113295890376991E1   5.605118779846477E1  -2.377796763468841E1   7.731161667987870E1  
 1.683985330073350E11   -2.095180984691653E1  -1.884562180827859E1  -1.135151444527947E1   4.053421044383485E1  -1.138650727460166E1   1.015811267990406E1  -2.078438003311736E1   3.890693576957482E1  
 1.684107579462103E11   -1.982394559875284E1  -3.085840010552785E1  -1.099974767093352E1  -4.813003693559703  -1.103164667714541E1  -3.502283663440463E1  -2.252538238265663E1   1.697792035147040E1  
 1.684229828850856E11   -1.953309082480668E1  -3.504987426512267E1  -1.069958959857976E1  -5.438087809797185E1  -1.073923490649893E1  -8.443979992643784E1  -2.184126400745840E1   2.661635509657860E1  
 1.684352078239609E11   -1.917079924697645E1  -4.105330585405259E1  -1.090039442942334E1  -1.039118741848148E2  -1.094944315114400E1  -1.338824252511257E2  -1.887389981971539E1   1.804866179864298E1  
 1.684474327628362E11   -1.863998134868509E1  -4.968773984047812E1  -1.122112020267165E1  -1.495948688835262E2  -1.126275589350520E1  -1.794548751232855E2  -1.734153566437914E1  -4.820026532849916  
 1.684596577017115E11   -1.989561196137484E1  -6.429306908372632E1  -1.088347736417747E1   1.640352598574328E2  -1.093948064463690E1   1.344842590403158E2  -1.967707062698096E1  -2.610264500151536E1  
 1.684718826405868E11   -2.201907750676406E1  -5.607584828429256E1  -1.074506527541052E1   1.146013115851973E2  -1.078794954053774E1   8.421512728614948E1  -2.195474004672899E1  -1.239331011896442E1  
 1.684841075794621E11   -2.030233293172890E1  -4.673609480857988E1  -1.110650179639580E1   6.511324022721446E1  -1.116388033248952E1   3.582466017962349E1  -1.907460568177033E1  -5.332645695757737  
 1.684963325183374E11   -1.888472693517578E1  -6.132796916991416E1  -1.130021337462585E1   2.046251625221875E1  -1.134538824406521E1  -9.000926466676335  -1.681860262202684E1  -2.459433599513996E1  
 1.685085574572127E11   -2.159845291065700E1  -7.033495447715940E1  -1.100655609516410E1  -2.685756764199866E1  -1.104265747524081E1  -5.651705156963708E1  -1.791553557069977E1  -4.558104138903432E1  
 1.685207823960880E11   -2.151324676406817E1  -4.650807457580368E1  -1.107233686804133E1  -7.642740550917647E1  -1.112850872966024E1  -1.063767163139034E2  -2.036748703037919E1  -5.093876262818947E1  
 1.685330073349633E11   -1.745593948324621E1  -4.954483316825085E1  -1.152546070702162E1  -1.240483998368861E2  -1.160317060253871E1  -1.536436328035884E2  -2.076738113006683E1  -3.986006522720354E1  
 1.685452322738386E11   -1.588901344656036E1  -7.505759381780274E1  -1.150721171188377E1  -1.682565205996450E2  -1.157524593832752E1   1.621891576299126E2  -1.891729068589820E1  -5.372567698066598E1  
 1.685574572127139E11   -1.784235466470810E1  -9.750914592889045E1  -1.118014302747405E1   1.436472918873086E2  -1.125640684075517E1   1.142267577314230E2  -2.205625553093236E1  -7.639667617649650E1  
 1.685696821515892E11   -2.134206163236639E1  -9.484582578127763E1  -1.134809127024530E1   9.394107827356439E1  -1.141490500397482E1   6.423170434790833E1  -2.859740238239056E1  -4.551011874880849E1  
 1.685819070904645E11   -1.913767377841143E1  -7.873692426595142E1  -1.194483759485305E1   4.834639854847724E1  -1.202952930905447E1   1.841785085987997E1  -2.106201756869033E1  -1.392654921601827E1  
 1.685941320293398E11   -1.704707315293510E1  -1.031963952734752E2  -1.176962004255104E1   4.948710122498330  -1.184228654629682E1  -2.524944584103139E1  -1.746265474001905E1  -4.655307861621392E1  
 1.686063569682152E11   -1.923915696796342E1  -1.321004593161200E2  -1.146900126875443E1  -4.365246045353384E1  -1.153648449309057E1  -7.350239046959133E1  -1.925513361942617E1  -7.793491240290507E1  
 1.686185819070905E11   -2.714135838718795E1  -1.371959129294408E2  -1.170068131416220E1  -9.188210309380222E1  -1.172281431650850E1  -1.218321237303440E2  -2.587865605002640E1  -8.711955241571538E1  
 1.686308068459658E11   -2.290804758046907E1  -8.286901814392688E1  -1.193303156569881E1  -1.361435355492506E2  -1.198979454694301E1  -1.659112066582625E2  -2.396520596182216E1  -3.092543164494946E1  
 1.686430317848411E11   -1.969543726128666E1  -1.160926041309151E2  -1.141482770449096E1   1.784972238797977E2  -1.147634957482167E1   1.492293486615762E2  -1.989083142598712E1  -5.823348650944491E1  
 1.686552567237164E11   -2.218797099269191E1  -1.520923729243759E2  -1.109657519948752E1   1.298315511456314E2  -1.113374833374216E1   9.978811962855146E1  -2.253240862551809E1  -8.822772782680650E1  
 1.686674816625917E11   -3.386864315540578E1   1.686287570216548E2  -1.128234188503691E1   8.108159387137184E1  -1.132784727282029E1   5.138431995213431E1  -3.105647019330406E1  -6.316426145306213E1  
 1.686797066014670E11   -2.822706679050171E1  -6.397485823118046E1  -1.117576426470689E1   3.560571242518358E1  -1.122733948707476E1   6.465676037361518  -2.344118611559331E1  -3.762370604774414E1  
 1.686919315403423E11   -2.565762150422791E1  -9.193580420856659E1  -1.085148530453388E1  -1.213245433310720E1  -1.090284809488822E1  -4.203382164332803E1  -2.319252844625567E1  -5.950124805519458E1  
 1.687041564792176E11   -2.662376341189102E1  -9.641798660121488E1  -1.086329125418975E1  -6.179104970274662E1  -1.088649212290815E1  -9.180092907524389E1  -2.625054976776693E1  -5.491489852092538E1  
 1.687163814180929E11   -2.517717700842670E1  -8.591830986668555E1  -1.115218916180075E1  -1.089563455169280E2  -1.120352838870778E1  -1.388748367927595E2  -2.353639996443503E1  -3.034387762730206E1  
 1.687286063569682E11   -2.159151926563558E1  -1.038422911315165E2  -1.107800489002002E1  -1.543322365776885E2  -1.110156855181642E1   1.763697555543476E2  -1.952882992442894E1  -4.975519663570847E1  
 1.687408312958435E11   -2.217469709506234E1  -1.377847448158734E2  -1.073850519215953E1   1.576724066779466E2  -1.074525061153488E1   1.280700798073553E2  -2.008309071209728E1  -7.989898217638546E1  
 1.687530562347188E11   -2.732389903488451E1  -1.649455693127107E2  -1.067810353629019E1   1.083412123089871E2  -1.074380764675390E1   7.857495677470099E1  -2.499405890112671E1  -9.880668322805984E1  
 1.687652811735941E11   -3.381559933839198E1  -1.072765653331825E2  -1.096254072625469E1   6.076183672526479E1  -1.098679483151817E1   3.096215935628858E1  -2.883652346418820E1  -4.520658935338030E1  
 1.687775061124694E11   -2.521390198981199E1  -1.221190033112435E2  -1.085725196521478E1   1.463944595398780E1  -1.090554552118936E1  -1.500534706348467E1  -2.210577924441812E1  -5.733291164124345E1  
 1.687897310513447E11   -2.495381473734637E1  -1.742172338623300E2  -1.072137693566655E1  -3.366891414140553E1  -1.076852004534740E1  -6.352023512897316E1  -2.271346184032671E1  -9.193331124581346E1  
 1.688019559902200E11   -2.767705259510938E1   1.163297354192496E2  -1.086443043534160E1  -8.215196359315239E1  -1.090440831206307E1  -1.113432175685743E2  -2.956180275967837E1  -1.247759193752316E2  
 1.688141809290953E11   -2.859193336368687E1   2.837813285698277E1  -1.093348182691577E1  -1.279094414509825E2  -1.098061466387580E1  -1.576464491618248E2  -3.527839686873850E1  -4.011290000712160  
 1.688264058679706E11   -2.904150175998166E1  -2.534283922076284E1  -1.063068883982406E1  -1.749512454024361E2  -1.065217041813656E1   1.550436031372034E2  -2.972100504038225E1  -2.383451370813401E1  
 1.688386308068460E11   -2.975298687559267E1  -3.984186690293208E1  -1.050907407755215E1   1.350582501245503E2  -1.054072613605073E1   1.056367389425899E2  -2.958064193776700E1   2.275640107262143  
 1.688508557457213E11   -2.877264579203945E1  -3.603257033469035E1  -1.083318404628142E1   8.601375654169543E1  -1.084972795794789E1   5.633523066937164E1  -2.354318793703289E1   1.435944480893890E1  
 1.688630806845966E11   -2.517086828367114E1  -5.195451138390122E1  -1.111087679417371E1   4.045951573573714E1  -1.115090181311668E1   1.053360597506657E1  -1.867181554228325E1  -4.834820400599653  
 1.688753056234719E11   -2.828913895172676E1  -7.766052098806291E1  -1.086612328417682E1  -6.513636030595066  -1.087562630421127E1  -3.577334712854297E1  -1.799515733593501E1  -3.059497554645447E1  
 1.688875305623472E11   -3.004975700119484E1  -2.955511902964310E1  -1.087376673998829E1  -5.550921407815959E1  -1.088248599494089E1  -8.486585490201617E1  -1.897385670734802E1  -3.837924028415439E1  
 1.688997555012225E11   -2.245452794374507E1  -3.430234332673518E1  -1.129369878440828E1  -1.025851286997498E2  -1.129644676619391E1  -1.326008065005176E2  -1.771912658984645E1  -3.591559247296783E1  
 1.689119804400978E11   -1.939800370060642E1  -7.266379567372307E1  -1.133574513834633E1  -1.470124111894199E2  -1.137853753859344E1  -1.770490109189604E2  -1.508752369339237E1  -5.263648238270192E1  
 1.689242053789731E11   -2.065820945342984E1  -1.166584794829549E2  -1.101176187937063E1   1.659476930501064E2  -1.102784043363927E1   1.364808206742370E2  -1.505944901961882E1  -8.132276487028237E1  
 1.689364303178484E11   -2.736303383200784E1  -1.702500954499197E2  -1.096604488485896E1   1.172894362647126E2  -1.098824234515148E1   8.755344876650965E1  -1.785736730580153E1  -1.080771355672792E2  
 1.689486552567237E11   -2.992900053710287E1   8.936516493548730  -1.117383922831948E1   7.044720420651404E1  -1.120613931162882E1   4.151587301484291E1  -2.468553884020001E1  -1.058680162709794E2  
 1.689608801955990E11   -2.390854904764106E1  -5.383772208323089E1  -1.084208515913403E1   2.499795575059400E1  -1.086485596291574E1  -4.628510497984790  -2.253065666338245E1  -8.009959505024739E1  
 1.689731051344743E11   -2.597225001388578E1  -8.956652191895618E1  -1.058053989880749E1  -2.425465955266091E1  -1.062641150910106E1  -5.417996251912776E1  -2.230643802848843E1  -1.011317289055416E2  
 1.689853300733496E11   -3.698837584030689E1  -5.810514958494116E1  -1.080399522258240E1  -7.401415397454085E1  -1.079314182276019E1  -1.038083978897667E2  -2.826903567423114E1  -1.229598514956618E2  
 1.689975550122250E11   -2.353617661919052E1  -2.028918363845646E1  -1.114109970874985E1  -1.200675439184204E2  -1.113682881692323E1  -1.494763251430148E2  -3.026008829345310E1  -2.643584146373861E1  
 1.690097799511003E11   -2.031145070010873E1  -5.425590365821675E1  -1.081679039422762E1  -1.653536439204688E2  -1.085199462863437E1   1.650453465759249E2  -2.422584763034165E1  -5.470978888905817E1  
 1.690220048899756E11   -2.107791695090228E1  -7.456777696833827E1  -1.060607846566355E1   1.452707451920077E2  -1.063291967585123E1   1.156730187437877E2  -2.841353454065252E1  -6.749563229011753E1  
 1.690342298288509E11   -2.252423425568533E1  -7.524057494976584E1  -1.081859389463481E1   9.615693126512652E1  -1.082191371721248E1   6.694662194582132E1  -2.688622896237707E1  -6.393185923635490  
 1.690464547677262E11   -1.995801205302756E1  -7.448058480960253E1  -1.108553075147893E1   5.069423713428683E1  -1.113801609895423E1   2.114246393371789E1  -1.934916316274161E1  -2.033062238885083E1  
 1.690586797066015E11   -1.927487108183606E1  -9.933475294770838E1  -1.082609698954454E1   4.326041902602158  -1.085222915588182E1  -2.528111381447890E1  -1.802509332521626E1  -5.241926176506501E1  
 1.690709046454768E11   -2.255839009732941E1  -1.199413350156467E2  -1.071171848932685E1  -4.446771802698387E1  -1.074001460798560E1  -7.408046336469764E1  -2.076313262499338E1  -6.986107680369659E1  
 1.690831295843521E11   -2.790241910795737E1  -8.561441197058537E1  -1.095187575535107E1  -9.206280857319212E1  -1.097032306231771E1  -1.221158178551930E2  -2.216467848987446E1  -4.597908701887863E1  
 1.690953545232274E11   -2.105435680099907E1  -7.455785696283091E1  -1.089088653643639E1  -1.378158093133359E2  -1.090453586148343E1  -1.675290406614315E2  -1.783477941123249E1  -5.191035635213753E1  
 1.691075794621027E11   -1.969440702020798E1  -9.897481984263196E1  -1.062344123262709E1   1.744743789425278E2  -1.063600160414384E1   1.445797631118567E2  -1.767077514917059E1  -7.676202508215822E1  
 1.691198044009780E11   -2.197092734388007E1  -1.107834208872450E2  -1.062511914414754E1   1.248819610318022E2  -1.063229597333510E1   9.508907665700920E1  -2.127603779782906E1  -8.891339541524877E1  
 1.691320293398533E11   -2.210958750094161E1  -9.001678960824184E1  -1.089300338213095E1   7.764903252995786E1  -1.090980256801601E1   4.772974116290952E1  -2.210336303469004E1  -5.435304909106206E1  
 1.691442542787286E11   -1.826088057390003E1  -1.016480775103267E2  -1.083312576349858E1   3.155579214787365E1  -1.082023869422582E1   1.467270371247429  -1.739909096031768E1  -6.347977445108279E1  
 1.691564792176039E11   -1.804096692698506E1  -1.284550388962629E2  -1.070896066118265E1  -1.681957373704287E1  -1.074929526882288E1  -4.687512713375257E1  -1.701703276530450E1  -8.927163752151613E1  
 1.691687041564792E11   -2.170504004040731E1  -1.483064901441082E2  -1.080941158484214E1  -6.539847109998438E1  -1.083817420358894E1  -9.515296335427541E1  -2.017405834978496E1  -1.083094373744467E2  
 1.691809290953545E11   -2.472003249704790E1  -1.138084685823711E2  -1.109356698709216E1  -1.124799922364613E2  -1.108624646070896E1  -1.422217203134628E2  -2.511899383915859E1  -8.293654693714601E1  
 1.691931540342298E11   -1.955906920103461E1  -1.193174080461474E2  -1.100622063055379E1  -1.581691396775169E2  -1.101531372297272E1   1.716799649128022E2  -1.966129034884167E1  -7.021365810287614E1  
 1.692053789731051E11   -1.924623971647728E1  -1.489823533748648E2  -1.095640654991842E1   1.537669243877660E2  -1.098981427482544E1   1.230732043759713E2  -1.859423460721696E1  -9.682826330470377E1  
 1.692176039119804E11   -2.397102927052634E1   1.799701235371804E2  -1.124722544310164E1   1.063110700656531E2  -1.125069276267102E1   7.614070213460579E1  -2.292970600107682E1  -1.156128499280453E2  
 1.692298288508557E11   -3.077589471227448E1  -9.516511398604938E1  -1.125355396330955E1   6.202271618992521E1  -1.127710739875175E1   3.136193564112028E1  -2.501294339678267E1  -6.931621319594804E1  
 1.692420537897311E11   -2.173549224562760E1  -1.111135868306725E2  -1.087199269575673E1   1.482798294470289E1  -1.091555780838196E1  -1.560586957781711E1  -2.013935559786400E1  -7.646460875746276E1  
 1.692542787286064E11   -2.117797961195666E1  -1.389079272558108E2  -1.075497746941561E1  -3.440261113267611E1  -1.078619550662852E1  -6.418302468800933E1  -2.047160893278148E1  -1.011739695667041E2  
 1.692665036674817E11   -2.539469560940403E1  -1.464871996133737E2  -1.093350398861544E1  -8.191161938844579E1  -1.094998392355618E1  -1.121082639790765E2  -2.686466872272164E1  -1.006528000487168E2  
 1.692787286063570E11   -2.247761206746760E1  -1.147240807938586E2  -1.084653297816557E1  -1.277842940032760E2  -1.087431237541062E1  -1.583116271850472E2  -2.190986454018776E1  -5.387614746343532E1  
 1.692909535452323E11   -1.910729925276801E1  -1.373832817462566E2  -1.062874349423434E1  -1.763063425854756E2  -1.067691440028776E1   1.532048352888837E2  -1.807630424722055E1  -7.758368192966880E1  
 1.693031784841076E11   -1.971525979183337E1  -1.667513846398311E2  -1.069042581926861E1   1.351727407900512E2  -1.075297141603218E1   1.047760535289741E2  -1.884626877642257E1  -1.054535240638930E2  
 1.693154034229829E11   -2.523450747091000E1   1.755815417380762E2  -1.092825630511555E1   8.839743770792011E1  -1.097052178681109E1   5.800148628921740E1  -2.467020664395916E1  -1.118186807669403E2  
 1.693276283618582E11   -2.567172909975216E1  -1.417169591760881E2  -1.072305441202001E1   4.226443492606067E1  -1.077669545584945E1   1.149938885805123E1  -2.263785241197899E1  -6.951578860957834E1  
 1.693398533007335E11   -2.216837732269403E1  -1.574521202472932E2  -1.057950922317294E1  -5.850363991726269  -1.062786680786457E1  -3.673359294879111E1  -1.934978661499592E1  -8.461450145939523E1  
 1.693520782396088E11   -2.335165033345386E1   1.715567590430291E2  -1.072746705121035E1  -5.425710897113086E1  -1.075760320274141E1  -8.529619333533981E1  -2.034678463212054E1  -1.013573485804689E2  
 1.693643031784841E11   -3.683472024990616E1   1.543662233467271E2  -1.078564504431601E1  -1.005719156966886E2  -1.080723079176561E1  -1.318729339099102E2  -2.186114949983294E1  -9.276252528040466E1  
 1.693765281173594E11   -2.611072014425486E1  -1.065155189230603E2  -1.057581615405456E1  -1.481898232450079E2  -1.062409297827160E1  -1.796748108871169E2  -1.967456375813216E1  -9.357885159068407E1  
 1.693887530562347E11   -2.202515421475102E1  -1.371627571035281E2  -1.060261610947299E1   1.629028565897170E2  -1.063654986730151E1   1.314182565300014E2  -1.955444672286773E1  -1.123444539297558E2  
 1.694009779951100E11   -2.347266282505902E1  -1.646872105170662E2  -1.086026772092991E1   1.150216021064402E2  -1.089085868868431E1   8.379812412729717E1  -2.338822803254515E1  -1.242139995786159E2  
 1.694132029339853E11   -2.669346046042284E1  -1.409806113264649E2  -1.090018097864565E1   6.905918353167159E1  -1.094926531171110E1   3.733352193662265E1  -2.468661482866618E1  -8.381058121847769E1  
 1.694254278728606E11   -2.150261168518032E1  -1.400687065263082E2  -1.074688291297874E1   2.178977969960808E1  -1.079411936172249E1  -9.640747093141954  -1.969131886061740E1  -8.897537322014102E1  
 1.694376528117359E11   -1.960737778877412E1  -1.647078370627183E2  -1.082173378490624E1  -2.662348888762858E1  -1.085018954818321E1  -5.794457165665170E1  -1.870327948045272E1  -1.159431346347756E2  
 1.694498777506112E11   -2.095270956883286E1   1.647978161958645E2  -1.100206844881145E1  -7.327265775451269E1  -1.105108397870158E1  -1.047226844584355E2  -2.228476651258225E1  -1.427223068210291E2  
 1.694621026894865E11   -2.612274973460811E1   1.586290912672052E2  -1.086461265160627E1  -1.196521663096663E2  -1.089748422106406E1  -1.506155531155971E2  -2.967979229304121E1  -1.173641084068342E2  
 1.694743276283619E11   -2.653495592317797E1   1.767317631197427E2  -1.068985591855209E1  -1.678187439224389E2  -1.075486382818146E1   1.609049124910455E2  -2.517921580920998E1  -8.654627055435471E1  
 1.694865525672372E11   -2.601529326565170E1   1.658363564940000E2  -1.084286738891336E1   1.434135597620923E2  -1.086761357968303E1   1.123773870019642E2  -2.399785977789200E1  -9.684681573433375E1  
 1.694987775061125E11   -3.318671019940489E1   1.370438338260730E2  -1.101129561865052E1   9.707563795296090E1  -1.104579489958382E1   6.573342124168380E1  -2.510461475445895E1  -8.476089685330109E1  
 1.695110024449878E11   -2.786666279731215E1  -1.052954910070489E2  -1.085401307564641E1   5.023267627098396E1  -1.090201425864546E1   1.891951330871440E1  -2.148452086368548E1  -7.880142540624384E1  
 1.695232273838631E11   -2.109874073450434E1  -1.393043785303821E2  -1.082044774916387E1   1.908285898963048  -1.086083472974802E1  -2.955431834627882E1  -1.934297690561891E1  -9.690035267673881E1  
 1.695354523227384E11   -1.952495378964244E1  -1.751859701993877E2  -1.104266459241613E1  -4.568014131729790E1  -1.105527640197183E1  -7.734524444275888E1  -2.026323153129521E1  -1.212988147798285E2  
 1.695476772616137E11   -2.212231405798967E1   1.576375826727505E2  -1.108243240219059E1  -9.163301740753725E1  -1.113110774292955E1  -1.227842522937396E2  -2.519077321963798E1  -1.283363649546861E2  
 1.695599022004890E11   -2.427829591210042E1   1.625786614527455E2  -1.087038601391766E1  -1.388421665975433E2  -1.092231191559275E1  -1.701897255049489E2  -2.653814740944527E1  -9.104846428312925E1  
 1.695721271393643E11   -2.289541068377361E1   1.554403006226891E2  -1.086293641769030E1   1.731024154749784E2  -1.088677485909685E1   1.412383594086184E2  -2.305683581375507E1  -8.636626130940175E1  
 1.695843520782396E11   -2.315300448620656E1   1.233746997288000E2  -1.104263410031788E1   1.262426563170929E2  -1.107238427445878E1   9.396880293417810E1  -2.292694321294855E1  -9.276463183888626E1  
 1.695965770171149E11   -3.062628471018035E1   6.534156310734635E1  -1.095705727392913E1   7.966445466816134E1  -1.098396458225331E1   4.796661667075622E1  -2.171310537954398E1  -8.085575158657507E1  
 1.696088019559902E11   -3.127671535843271E1  -1.087015361839455E2  -1.072454554779620E1   3.150184244393364E1  -1.080156152917058E1   1.865903791190575E-1  -1.874443893703050E1  -8.985184878013838E1  
 1.696210268948655E11   -2.437253109029612E1  -1.617788338447160E2  -1.085939046181549E1  -1.748188095124131E1  -1.088739167140659E1  -4.821832598713433E1  -1.795336196804039E1  -1.110993214862327E2  
 1.696332518337408E11   -2.518479860726268E1   1.509726015773641E2  -1.104940392527946E1  -6.367012869151886E1  -1.109135990765953E1  -9.541820631451080E1  -2.013530191288821E1  -1.284290248804987E2  
 1.696454767726162E11   -3.951712060682450E1   1.564977622685216E2  -1.084770426440612E1  -1.103363557895622E2  -1.089560670755525E1  -1.416726662227132E2  -2.251177014293213E1  -1.180171345506846E2  
 1.696577017114915E11   -2.707838166606624E1  -1.371617876714135E2  -1.076589656683679E1  -1.594613000618995E2  -1.078091921404547E1   1.692922968336582E2  -2.091173645900093E1  -1.134340858891955E2  
 1.696699266503668E11   -2.254728634841963E1  -1.678007607993926E2  -1.101238041920772E1   1.523391692248661E2  -1.103569654795555E1   1.206296012292167E2  -2.049599048900967E1  -1.301571233809759E2  
 1.696821515892421E11   -2.399756850078577E1   1.600666806816380E2  -1.126409217858352E1   1.068603782741551E2  -1.129845940141416E1   7.500502264815978E1  -2.435578577561084E1  -1.411536419676033E2  
 1.696943765281174E11   -2.708998796511654E1  -1.791806515438186E2  -1.103873476489311E1   6.095249109769534E1  -1.106859868901914E1   2.889836491637673E1  -2.613415690337955E1  -1.058008300435050E2  
 1.697066014669927E11   -2.187857230019414E1  -1.794135220418777E2  -1.095373218243372E1   1.269573689772842E1  -1.099252829924187E1  -1.928979225192127E1  -2.231053391039484E1  -1.005098955510967E2  
 1.697188264058680E11   -1.974448946333524E1   1.478414845279393E2  -1.113474882002004E1  -3.472708752151576E1  -1.117370280555068E1  -6.680750645437809E1  -2.148070139921545E1  -1.132338950566565E2  
 1.697310513447433E11   -2.199386622675755E1   1.089918950315623E2  -1.106263059835532E1  -8.080834227735510E1  -1.109717451766024E1  -1.125739495265538E2  -2.192100269075630E1  -1.113825673238497E2  
 1.697432762836186E11   -3.098849771360486E1   7.785318929076087E1  -1.084483398868965E1  -1.292635908322027E2  -1.086534883016359E1  -1.601029057691003E2  -2.036348099855111E1  -1.136902763777535E2  
 1.697555012224939E11   -3.088513582389482E1  -1.594115006776887E2  -1.090415346000643E1  -1.775988471243330E2  -1.096040312201689E1   1.508703284063773E2  -1.956956170140310E1  -1.275473215925755E2  
 1.697677261613692E11   -2.413725118724350E1   1.628174053789813E2  -1.118551356353748E1   1.356250515834134E2  -1.120262328672725E1   1.040954121366153E2  -2.123732805407922E1  -1.439847123964152E2  
 1.697799511002445E11   -2.624075101752898E1   1.354101502156189E2  -1.101504655159473E1   9.043876392296617E1  -1.107009156227399E1   5.903044681876260E1  -2.420721086849536E1  -1.374357065565582E2  
 1.697921760391198E11   -2.808621903201886E1   1.471355163730564E2  -1.076582588618883E1   4.264621170248972E1  -1.076159420385099E1   1.131702726479576E1  -2.388044024976625E1  -1.262166023017921E2  
 1.698044009779951E11   -2.595503730933471E1   1.506372939040115E2  -1.071782978264711E1  -5.759595835378580  -1.077513218188805E1  -3.705774528241393E1  -2.300485661525759E1  -1.273773001486340E2  
 1.698166259168704E11   -2.539773339486671E1   1.286104024578000E2  -1.079351121808105E1  -5.264553714649792E1  -1.083003851569720E1  -8.407704299752949E1  -2.394090196747893E1  -1.291441980919778E2  
 1.698288508557457E11   -3.072952585435069E1   1.279182638402557E2  -1.057370255947225E1  -1.009019194296513E2  -1.061883914558720E1  -1.317237329133155E2  -2.371216005448570E1  -1.187065154094676E2  
 1.698410757946210E11   -2.792795925806182E1   1.671051286771376E2  -1.050257069982490E1  -1.499474694801955E2  -1.055151498429343E1   1.792130223123336E2  -2.201593487684448E1  -1.156941804359045E2  
 1.698533007334963E11   -2.327646163791672E1   1.498244691615542E2  -1.069811688486116E1   1.617053556094379E2  -1.073795039612198E1   1.305743488931208E2  -2.031174189763737E1  -1.250713998737034E2  
 1.698655256723716E11   -2.365226978306440E1   1.140192270682280E2  -1.091174570120192E1   1.152060308975062E2  -1.095508429660858E1   8.394057224436583E1  -2.095412337299689E1  -1.383694972453901E2  
 1.698777506112470E11   -3.307912170360837E1   1.024068790159061E2  -1.075624019410742E1   6.841207861339711E1  -1.080781081314674E1   3.717563562452496E1  -2.172532220632966E1  -1.320865321886105E2  
 1.698899755501223E11   -2.804411082637708E1  -1.728162292598838E2  -1.079828538425386E1   1.938598762240382E1  -1.084390428551065E1  -1.121395093953627E1  -1.939519751192512E1  -1.350979236101744E2  
 1.699022004889976E11   -2.151281488490867E1   1.635147184117161E2  -1.107368697871281E1  -2.732068881434975E1  -1.111462096763656E1  -5.807528018427922E1  -1.824959240667927E1  -1.560185299834341E2  
 1.699144254278729E11   -2.089889709199180E1   1.381095798967513E2  -1.101992885933245E1  -7.287771392744909E1  -1.106752981613050E1  -1.035544428512503E2  -1.988950750250601E1  -1.797805916742778E2  
 1.699266503667482E11   -2.099477274047664E1   1.306938804919263E2  -1.078635045753547E1  -1.207888094463103E2  -1.081227480780248E1  -1.512921345893693E2  -2.336295781181536E1   1.640209440747492E2  
 1.699388753056235E11   -1.973335830291742E1   1.245499015261057E2  -1.083999954828057E1  -1.696556704624135E2  -1.087889086344320E1   1.597351212266762E2  -2.908898536441033E1   1.699229690243454E2  
 1.699511002444988E11   -1.801341092912730E1   1.069378408694801E2  -1.114551450953632E1   1.432664550255113E2  -1.119251764675756E1   1.126545001733181E2  -3.019093696606251E1  -1.658435872655269E2  
 1.699633251833741E11   -1.858866594218030E1   8.056379793273531E1  -1.102734424387322E1   9.777677495528269E1  -1.106761612392928E1   6.771360282392516E1  -2.968257416022117E1  -1.293049742128497E2  
 1.699755501222494E11   -2.146408856467478E1   6.511720069975713E1  -1.080173996752894E1   5.008833160279738E1  -1.083427267897184E1   1.970389588894340E1  -2.462152879044359E1  -1.349818338198540E2  
 1.699877750611247E11   -2.416691460662298E1   7.349101051265873E1  -1.089613755555785E1   1.144038618112066  -1.093000538039133E1  -2.915420755655362E1  -2.313020326466402E1  -1.573944798686447E2  
 1.700000000000000E11   -2.184389953732968E1   7.733323289063191E1  -1.104429801545708E1  -4.496733263316369E1  -1.108766017282170E1  -7.534915674369363E1  -2.493386032776963E1   1.785324705886824E2  
 1.700122249388753E11   -2.170376721937126E1   5.829543580406527E1  -1.078116445936052E1  -9.186855160053598E1  -1.084624442925516E1  -1.218441761746436E2  -2.823666697437454E1   1.767030666008506E2  
 1.700244498777506E11   -2.306936591949518E1   5.005810794910966E1  -1.068290282348994E1  -1.403911196729465E2  -1.071254697486587E1  -1.703091682821662E2  -2.824468573261230E1   1.706931144919444E2  
 1.700366748166259E11   -2.291060063225207E1   4.735375375961087E1  -1.089104704456997E1   1.711748490723626E2  -1.094914622548276E1   1.408875437639533E2  -2.914836799223076E1   1.356240512157423E2  
 1.700488997555012E11   -2.122860680358402E1   2.540408678221621E1  -1.099451194563705E1   1.248929298532066E2  -1.104029733612981E1   9.521188760044713E1  -2.889808043148665E1   5.223547787404154E1  
 1.700611246943765E11   -2.286068498332351E1  -1.879631971458090E1  -1.076901788043645E1   7.798072428050152E1  -1.083188360387044E1   4.818410031346386E1  -2.433446629257841E1  -2.400694305900526E1  
 1.700733496332518E11   -2.881121361298421E1  -8.487709881443678E1  -1.078319509225620E1   2.903371406276142E1  -1.083124086452119E1  -2.199569381201699E-1  -2.141792898339063E1  -7.030956934706366E1  
 1.700855745721271E11   -2.942294466677963E1   1.464961028693403E2  -1.106018223439922E1  -1.757829866353370E1  -1.107247678433788E1  -4.775460667647322E1  -2.145562080825889E1  -1.059662482160949E2  
 1.700977995110024E11   -2.690565775484904E1   7.009450245976770E1  -1.087874739541058E1  -6.312319181290671E1  -1.092628894309178E1  -9.296603601550616E1  -2.437150415137772E1  -1.133996072075293E2  
 1.701100244498778E11   -3.061406134598235E1   2.034002766337460E1  -1.056258697918582E1  -1.116575119770181E2  -1.058161738865094E1  -1.417988342173495E2  -2.282038896335041E1  -1.075056909532814E2  
 1.701222493887531E11   -4.184138850971369E1  -1.596123334402770E2  -1.062386844914657E1  -1.608119208393916E2  -1.068415610196534E1   1.687029266833898E2  -2.109704497757619E1  -1.187456000458474E2  
 1.701344743276284E11   -2.595209987251777E1   1.240298271083255E2  -1.099063903698719E1   1.517095646612584E2  -1.104700424657596E1   1.216561212906281E2  -2.114891472358938E1  -1.381969059485304E2  
 1.701466992665037E11   -2.380047192835089E1   7.517354399929369E1  -1.094144971418405E1   1.062731901408101E2  -1.098746393277907E1   7.600633343098924E1  -2.309904112532768E1  -1.393030848338191E2  
 1.701589242053790E11   -2.675192632615734E1   4.148802186333291E1  -1.076646641814945E1   5.849171498959986E1  -1.082076808198712E1   2.747346287672015E1  -2.154472830252339E1  -1.400025383468103E2  
 1.701711491442543E11   -3.494111721730582E1   6.953558131025798E1  -1.093608165557312E1   1.012935310313978E1  -1.097434461155497E1  -2.029848166699366E1  -2.108046369153687E1  -1.591929114531307E2  
 1.701833740831296E11   -2.539737876465091E1   9.165420697436655E1  -1.101739333101805E1  -3.531286256607361E1  -1.106589434208138E1  -6.602236315089502E1  -2.453436617985264E1  -1.770131511408704E2  
 1.701955990220049E11   -2.267624997857032E1   6.360826990005517E1  -1.070871026685757E1  -8.240382628460634E1  -1.074224774119228E1  -1.129185802119912E2  -2.614705492411325E1  -1.464861708748298E2  
 1.702078239608802E11   -2.244066814741257E1   3.920452574041915E1  -1.056813193639957E1  -1.310951106492859E2  -1.062491322618139E1  -1.621456590205950E2  -2.248092293715282E1  -1.518717356025568E2  
 1.702200488997555E11   -2.410994200010151E1   2.139304511132367E1  -1.073141221282331E1  -1.798399412279068E2  -1.075743524022336E1   1.490027382040681E2  -2.143275585282819E1  -1.758921396017203E2  
 1.702322738386308E11   -2.440323978466905E1   1.930325209520693E1  -1.090019910083430E1   1.337344141757817E2  -1.092864993045775E1   1.027067535139065E2  -2.343562350951818E1   1.510208217970321E2  
 1.702444987775061E11   -2.456904227145471E1   5.722365175984118E-1  -1.068547742156294E1   8.672904089678443E1  -1.074344220809709E1   5.562749315539794E1  -3.314316349767101E1   1.285285743841939E2  
 1.702567237163814E11   -2.789027948988164E1  -1.500917270754441E1  -1.067897753013956E1   3.738045316711389E1  -1.071885827593978E1   6.701083057975279  -3.276434357931090E1  -1.398604219749804E2  
 1.702689486552567E11   -3.086917297846705E1   1.340838194417503E1  -1.100962640063528E1  -1.023195273835943E1  -1.104348935270124E1  -4.187561066283059E1  -2.781874433974904E1  -1.654807861296208E2  
 1.702811735941320E11   -2.554752000579758E1   6.016171048684413  -1.103929523607962E1  -5.550972224946374E1  -1.108960405245705E1  -8.731255343089553E1  -3.353710366685111E1   1.590230591288317E2  
 1.702933985330073E11   -2.552850126515495E1  -2.439536514381532E1  -1.080703022178225E1  -1.028472619951377E2  -1.086077532593464E1  -1.351624243028049E2  -3.420343518729868E1  -9.825943002660233E1  
 1.703056234718826E11   -2.873278828385679E1  -5.244021664778264E1  -1.090556425410655E1  -1.519242924821989E2  -1.094664100423743E1   1.756249823560529E2  -2.656149530436139E1  -1.205237248441394E2  
 1.703178484107579E11   -3.762692484797795E1  -1.677145700018721E1  -1.121327625843711E1   1.614147465610698E2  -1.128374662003765E1   1.287902794845226E2  -2.556764817295936E1  -1.533382446937638E2  
 1.703300733496332E11   -2.784713080488235E1  -9.981655110161777  -1.116454616019178E1   1.158620497665839E2  -1.119274352311529E1   8.361351333729445E1  -3.170822044715025E1  -1.583211424450151E2  
 1.703422982885085E11   -2.598584515441636E1  -4.846286540685497E1  -1.093698353279862E1   6.807725023026246E1  -1.099493125506815E1   3.528559328559351E1  -2.652559279715699E1  -1.181146005898112E2  
 1.703545232273839E11   -2.694952191588737E1  -9.317362861952759E1  -1.110417728252831E1   1.950333102770253E1  -1.115987360424729E1  -1.317008426212317E1  -2.206077901182759E1  -1.435558028114347E2  
 1.703667481662592E11   -3.294704631498017E1  -1.370212811943539E2  -1.136714189865768E1  -2.657462444100544E1  -1.137929807761721E1  -5.891590221977457E1  -2.193875814503007E1   1.762860370670657E2  
 1.703789731051345E11   -3.709462902961971E1  -1.191440714043230E2  -1.111214715025757E1  -7.203110182585242E1  -1.113372487088443E1  -1.050372913529118E2  -2.730132917373780E1   1.475090459809657E2  
 1.703911980440098E11   -3.455059847812471E1  -1.514639166046603E2  -1.095908044901371E1  -1.205606064957238E2  -1.099594177023813E1  -1.538389327554838E2  -3.419636328283626E1  -1.787359939561492E2  
 1.704034229828851E11   -3.160250196215839E1   1.638835277211323E2  -1.117693505197894E1  -1.686422311952984E2  -1.120841257266277E1   1.582388894091549E2  -2.958832896843322E1  -1.692736144935811E2  
 1.704156479217604E11   -2.931609249789565E1   9.496013490983572E1  -1.124237093118700E1   1.462080811188136E2  -1.128723765538770E1   1.127466166322413E2  -3.295948901449835E1   1.572053037719339E2  
 1.704278728606357E11   -3.175107920244226E1   2.299760876761889E1  -1.088140803409602E1   9.955454348151665E1  -1.091553123930146E1   6.587379382129170E1  -3.569135731427075E1  -1.043933198485215E2  
 1.704400977995110E11   -3.519322015600455E1  -6.440239267744413E1  -1.077189620720146E1   5.025094540928858E1  -1.083399189570738E1   1.671871794361187E1  -2.732061348542680E1  -1.259482125194280E2  
 1.704523227383863E11   -3.258241827257785E1  -1.703893035254091E2  -1.099882819374792E1   2.011781449512400  -1.104684044676467E1  -3.153181634879052E1  -2.569213681292986E1  -1.582881273494858E2  
 1.704645476772616E11   -3.116762399874340E1   1.145259452568570E2  -1.100557005636931E1  -4.364512618783845E1  -1.106861495405496E1  -7.688065487503455E1  -3.055159246257862E1   1.751401348734975E2  
 1.704767726161369E11   -3.581889582333223E1   8.713078440481429E1  -1.071589793769127E1  -9.158626132054390E1  -1.077314347051865E1  -1.252098743697083E2  -3.182307447894157E1  -1.280384105470986E2  
 1.704889975550122E11   -3.481959047628619E1   1.328103433707988E2  -1.075851390588104E1  -1.411664618107797E2  -1.080533061709508E1  -1.742419093502190E2  -2.611131863828201E1  -1.346824960801101E2  
 1.705012224938875E11   -2.616083810776524E1   1.102670517723422E2  -1.114132140565230E1   1.715815131704066E2  -1.118618382678322E1   1.382714311078211E2  -2.483588187446079E1  -1.650651216610293E2  
 1.705134474327628E11   -2.417718563578862E1   6.151658752937912E1  -1.102652200112810E1   1.259980231045104E2  -1.105898684291952E1   9.343135430113028E1  -3.137836001452005E1  -1.721783665009389E2  
 1.705256723716381E11   -2.593621665952287E1   2.419928808006229E1  -1.079975577488190E1   7.744739260950507E1  -1.084771174678880E1   4.455248503182680E1  -2.588598905648943E1  -1.248310263266447E2  
 1.705378973105134E11   -3.161852473029859E1  -5.088852765242275  -1.100881085010477E1   2.821385884442192E1  -1.106655970639666E1  -4.130550860773505  -2.070867782846778E1  -1.491635034150029E2  
 1.705501222493887E11   -3.313658754822180E1   3.431464457702935E1  -1.131062954748836E1  -1.721712471300103E1  -1.137118759332213E1  -4.941579991122288E1  -1.944165125441759E1   1.736560709619182E2  
 1.705623471882640E11   -3.184176943611400E1  -9.425741450321446  -1.096045406699015E1  -6.336344917556176E1  -1.102950206585057E1  -9.562482279714529E1  -2.224638061966324E1   1.452297115663303E2  
 1.705745721271393E11   -4.046524093462276E1  -9.913336122869919E1  -1.079508246945879E1  -1.122537882071514E2  -1.083597486266899E1  -1.449070058619476E2  -2.565952206670704E1   1.445507901393273E2  
 1.705867970660147E11   -3.103794297030369E1   1.392971237321210E2  -1.110336038113947E1  -1.614058033386249E2  -1.113285564073701E1   1.664127552667845E2  -2.467363624226588E1   1.470041591650814E2  
 1.705990220048900E11   -2.450293996821698E1   8.460221229190010E1  -1.133930288409441E1   1.535659847130432E2  -1.138209140402700E1   1.213695990500581E2  -2.385343816095375E1   1.117404159164042E2  
 1.706112469437653E11   -2.355169621722115E1   3.950551822622651E1  -1.100053871884344E1   1.070215258644793E2  -1.105890767710315E1   7.500277750541602E1  -3.132590847066129E1   4.115908063247336E1  
 1.706234718826406E11   -2.515324412186327E1   2.038523655365956  -1.091185839435453E1   5.784718454477422E1  -1.097367474194614E1   2.611237887061345E1  -2.925259087868375E1  -1.164320060286048E2  
 1.706356968215159E11   -3.031293913567337E1  -2.060109884115530E1  -1.119252005729800E1   1.031228006825329E1  -1.127144036453025E1  -2.100924595864357E1  -2.319645202751685E1  -1.748153081727949E2  
 1.706479217603912E11   -3.161397959329205E1  -1.264356936638454E1  -1.110320428829123E1  -3.502669963900318E1  -1.114444738249535E1  -6.613398339478174E1  -2.367500374659613E1   1.391119609251448E2  
 1.706601466992665E11   -3.469247563890754E1  -6.590518828430599E1  -1.076153423277681E1  -8.396677867418570E1  -1.079288514392818E1  -1.141617214490943E2  -2.770823346169764E1   1.204984335951093E2  
 1.706723716381418E11   -3.435640259561119E1   1.563925499899997E2  -1.083772711262994E1  -1.329125548106654E2  -1.087924260718665E1  -1.636231542281782E2  -3.026749896159807E1   1.363869272030962E2  
 1.706845965770171E11   -2.497838398775512E1   9.026782234870912E1  -1.121814467591559E1   1.799677833325500E2  -1.124215623299423E1   1.493961503665477E2  -2.553095588486799E1   1.349051404031660E2  
 1.706968215158924E11   -2.177116373377094E1   3.688431122354787E1  -1.102233202038735E1   1.348757552404433E2  -1.107568193933711E1   1.043206911154598E2  -2.488623297712466E1   8.307868659102296E1  
 1.707090464547677E11   -2.210344633168544E1  -7.605363870565792  -1.075422988491968E1   8.603880785352359E1  -1.082138788086628E1   5.589576310811344E1  -3.141312415644292E1   5.695951513791105  
 1.707212713936430E11   -2.484216561903817E1  -4.761494083557321E1  -1.092437286242262E1   3.707829479692727E1  -1.099640077659363E1   6.491312018404105  -2.933721250548567E1  -1.338896367195293E2  
 1.707334963325183E11   -3.291545135190420E1  -5.771901666960851E1  -1.117879027430168E1  -8.883416499299450  -1.124298131978513E1  -3.922856035298160E1  -2.437655391547911E1   1.537255793753295E2  
 1.707457212713937E11   -2.951404815822188E1  -4.406160013746014E1  -1.091001942403489E1  -5.560927815443906E1  -1.095799226263920E1  -8.565000755723402E1  -2.554636850894673E1   9.730220917966921E1  
 1.707579462102690E11   -2.849567874309387E1  -9.309562652708931E1  -1.078685275028310E1  -1.050628789290389E2  -1.083416176483287E1  -1.351821105915642E2  -3.188096244529280E1   4.763869054268285E1  
 1.707701711491443E11   -2.791878231972976E1  -1.640452716221678E2  -1.116698358567139E1  -1.537493045870430E2  -1.120485690498711E1   1.760564106967733E2  -3.994225727490910E1  -1.479790769821524E2  
 1.707823960880196E11   -2.600815825369281E1   1.167912970528518E2  -1.146310410110731E1   1.611408753616428E2  -1.149918105790267E1   1.317489349305716E2  -2.896798730215842E1   1.271203815219365E2  
 1.707946210268949E11   -2.587950493994540E1   5.583295421896125E1  -1.110881367792595E1   1.155110618072744E2  -1.112305931199581E1   8.592339869242927E1  -3.251645744230409E1   4.360946672305639E1  
 1.708068459657702E11   -2.766682147844470E1   1.382516778925862E1  -1.097628110255251E1   6.673657770367626E1  -1.099140928250129E1   3.704031357013600E1  -3.200717210998946E1  -1.008338548732663E2  
 1.708190709046455E11   -3.397668535520771E1   8.961297045570031E-1  -1.118934506182456E1   1.878747097219086E1  -1.121840844678431E1  -1.097113290216274E1  -2.468404885552243E1  -1.750799427484474E2  
 1.708312958435208E11   -2.956404600873237E1   2.549256814331402E1  -1.114709749589540E1  -2.690159298144377E1  -1.120819217685607E1  -5.649663797552572E1  -2.335873760565118E1   1.254653494417154E2  
 1.708435207823961E11   -2.723443447567026E1  -1.008648293383412E1  -1.085116313849242E1  -7.501095779029690E1  -1.091028036076558E1  -1.040497658076956E2  -2.813208840250067E1   7.281377652005888E1  
 1.708557457212714E11   -2.792094360586106E1  -4.773268688396756E1  -1.089867285711249E1  -1.243992373995588E2  -1.095709477119466E1  -1.530569957517277E2  -4.867221035981056E1  -1.584863448747318E2  
 1.708679706601467E11   -3.223150212546417E1  -9.949674177283328E1  -1.126546925444193E1  -1.716016014272662E2  -1.130915722313243E1   1.596197449440366E2  -2.584230304368974E1   1.599502411208914E2  
 1.708801955990220E11   -4.271291507592692E1  -7.934041791060315E1  -1.116290531585133E1   1.435716217742148E2  -1.119465846884060E1   1.145156537021942E2  -2.283379484729963E1   1.083086292489401E2  
 1.708924205378973E11   -3.466165098531577E1  -9.693367441881212E1  -1.085663796684337E1   9.547687154496794E1  -1.092607198801039E1   6.640363420499584E1  -2.539485367842402E1   6.510991030867753E1  
 1.709046454767726E11   -2.975652943585548E1  -1.537359221467705E2  -1.099171430552886E1   4.672873476539028E1  -1.102766340630814E1   1.748334184068084E1  -3.652946418378879E1   5.177855789132056E1  
 1.709168704156479E11   -2.617387819041070E1   1.463190800069268E2  -1.117141360650962E1   7.783616038897685E-1  -1.120874207073747E1  -2.864698635392693E1  -2.827833337099755E1   1.143235000633065E2  
 1.709290953545232E11   -2.616056389038803E1   1.006733187189480E2  -1.082538228934333E1  -4.566210715789275E1  -1.087090057434048E1  -7.493461795814427E1  -2.666207917218934E1   6.860083244244700E1  
 1.709413202933985E11   -2.772671546875806E1   7.760684610792343E1  -1.063253720014728E1  -9.506644435033461E1  -1.066302827246416E1  -1.246202775995991E2  -3.312152432334684E1   3.336826472256709E1  
 1.709535452322738E11   -2.891063508433144E1   7.985448378362186E1  -1.084721951562420E1  -1.442675652683396E2  -1.089644684223466E1  -1.743268793643447E2  -3.541846150237523E1   1.553950213402933E2  
 1.709657701711491E11   -2.481603143333765E1   7.256817679707189E1  -1.117189027652217E1   1.695683220904073E2  -1.121678113394185E1   1.396718192520396E2  -2.441727950097863E1   1.161153299166185E2  
 1.709779951100244E11   -2.410597863351309E1   3.729161633142853E1  -1.094775580849697E1   1.231626696854542E2  -1.102320122850398E1   9.325551421544712E1  -2.334004325419701E1   6.468616452223445E1  
 1.709902200488998E11   -2.716243589449859E1   4.616388860753633  -1.089254568333582E1   7.435679737304429E1  -1.096462980174725E1   4.416213873867795E1  -2.829420276797157E1   2.055539154600257E1  
 1.710024449877751E11   -3.925343503794868E1   1.753466861642156E1  -1.125228172855638E1   2.639372393420641E1  -1.125948042064892E1  -4.234343225108456  -3.846005781892514E1   1.488634434293521E2  
 1.710146699266504E11   -2.977650108354354E1   6.792206780345170E1  -1.130059494433386E1  -1.786529589477310E1  -1.133579866682754E1  -4.887493001692291E1  -2.508411732779769E1   1.015498193941454E2  
 1.710268948655257E11   -2.859859846250204E1   4.799854670576430E1  -1.096562871516030E1  -6.544755119808535E1  -1.100083897334485E1  -9.659004159515150E1  -2.565426314228200E1   5.801142090850044E1  
 1.710391198044010E11   -2.936489051057788E1   4.747042006324124E1  -1.092973346777717E1  -1.142439641862420E2  -1.100614228551125E1  -1.460068807186250E2  -3.396043392234234E1   6.344946202247348E1  
 1.710513447432763E11   -2.775173730598131E1   6.411824771612480E1  -1.127389878623008E1  -1.617774923629634E2  -1.130265400322385E1   1.669204152946709E2  -2.554310898380533E1   1.154769673417226E2  
 1.710635696821516E11   -2.397063643999129E1   4.525057918854796E1  -1.118659934011605E1   1.527485556756721E2  -1.123841666963092E1   1.211839160523709E2  -2.057381762533590E1   8.120736003937883E1  
 1.710757946210269E11   -2.573952362297280E1   2.011312486540433E1  -1.095712468429342E1   1.046583995406929E2  -1.100384131416094E1   7.310620629245355E1  -2.075691347339092E1   4.713325726421642E1  
 1.710880195599022E11   -3.161206848634786E1   4.530133985110908E1  -1.108857703797390E1   5.558275087310849E1  -1.113537108717541E1   2.387496764578239E1  -2.457543071079284E1   2.637401406142973E1  
 1.711002444987775E11   -2.277089252427871E1   7.354863111713655E1  -1.148903603236331E1   9.316412116243351  -1.152988024615183E1  -2.282287273165329E1  -2.709535377559832E1   6.729588349724908E1  
 1.711124694376528E11   -1.888046750298211E1   3.989313153192239E1  -1.129504674353691E1  -3.529600022644326E1  -1.133876411987035E1  -6.829435250632979E1  -2.068267023999797E1   5.244089187924037E1  
 1.711246943765281E11   -1.939386354736275E1   9.724875974628693  -1.111862545901732E1  -8.359497433735388E1  -1.114960161098109E1  -1.165735344977229E2  -2.094629446467441E1   1.412540855654028E1  
 1.711369193154034E11   -2.303170074711926E1  -2.988440792867124  -1.130372034959183E1  -1.320659118393344E2  -1.134223507540068E1  -1.653034197961845E2  -2.894633844679307E1  -1.077646155688153E1  
 1.711491442542787E11   -2.205326158083523E1   2.008484109973513E1  -1.133455637502373E1  -1.768789401364021E2  -1.136420299857360E1   1.494895434062345E2  -2.536605932722690E1   7.705507814521066E1  
 1.711613691931540E11   -1.924466514552517E1   2.149323484311690  -1.102623355652657E1   1.351931179481712E2  -1.106324267248461E1   1.020901045207728E2  -2.008652020298176E1   4.360633367248370E1  
 1.711735941320293E11   -1.962436589414311E1  -2.374626082210918E1  -1.103065937406357E1   8.645922407962945E1  -1.104239782035423E1   5.291878655718742E1  -2.045237376922474E1   9.240593337503897  
 1.711858190709046E11   -2.392757332000830E1  -3.734984122259454E1  -1.128684641990206E1   3.884602086495011E1  -1.132251770841488E1   4.594700904733198  -2.698499100642703E1  -1.545847763912856E1  
 1.711980440097799E11   -2.423575331953510E1  -8.015250743941762  -1.129795108207826E1  -6.994979676656209  -1.132332331200673E1  -4.064422657104957E1  -2.670437487626512E1   6.363171099275782E1  
 1.712102689486552E11   -2.147494446428840E1  -2.154277971286912E1  -1.104871374168106E1  -5.423802426819583E1  -1.109531890985690E1  -8.779259191702980E1  -2.065991378510529E1   4.191788508065997E1  
 1.712224938875306E11   -2.286631422502173E1  -4.510166285288714E1  -1.103889121514969E1  -1.031025547378565E2  -1.105139298360946E1  -1.370960612908039E2  -2.055699020533986E1   1.523863693049575E1  
 1.712347188264059E11   -3.016208346490902E1  -3.539128917108526E1  -1.126288861167323E1  -1.500263524256762E2  -1.129946313758395E1   1.755538979463627E2  -2.473890928782243E1   1.261387306234895E1  
 1.712469437652812E11   -2.342797380721494E1   2.005545014784481  -1.115495788713243E1   1.641633490961977E2  -1.119462022566228E1   1.300685759974318E2  -2.106547641254197E1   4.152314489903225E1  
 1.712591687041565E11   -2.048497180496966E1  -2.501919343477482E1  -1.095670851616662E1   1.156185216555585E2  -1.098944721113908E1   8.156171582070817E1  -1.758063473031347E1   2.056212500244113E1  
 1.712713936430318E11   -2.168538735818555E1  -5.662222988127525E1  -1.106291888052779E1   6.666054291683255E1  -1.109504240576569E1   3.328697638029910E1  -1.783403822666245E1  -4.680100827851273  
 1.712836185819071E11   -3.007347710286880E1  -6.690563811572105E1  -1.122950300383077E1   2.048336775098768E1  -1.125895148605767E1  -1.361896026261491E1  -2.080837785426288E1  -8.585325548693493  
 1.712958435207824E11   -2.730164229012063E1   4.208313158329919  -1.108435489486748E1  -2.691359205992475E1  -1.108669727048519E1  -6.129432208281463E1  -1.909401663028274E1   1.226663280040767  
 1.713080684596577E11   -2.209635816281610E1  -9.534344116160455  -1.112321699051822E1  -7.594154626915724E1  -1.112740958783232E1  -1.098892653453453E2  -1.725909819444445E1  -1.715848127883683E1  
 1.713202933985330E11   -2.169782674888347E1  -2.897440447391701E1  -1.141521112776099E1  -1.241015830348200E2  -1.142154911115383E1  -1.577918314692604E2  -1.857545730866742E1  -4.382602733150566E1  
 1.713325183374083E11   -2.210295776640074E1  -2.042200240597057E1  -1.158825798344105E1  -1.692512637595934E2  -1.159936766364275E1   1.571251763680721E2  -2.560030214581409E1  -4.656827570029731E1  
 1.713447432762836E11   -1.827896769972026E1  -2.635876897335045E1  -1.141819963847523E1   1.436627922163149E2  -1.143083662538226E1   1.104339243111409E2  -2.215758583184920E1   1.719261589938143  
 1.713569682151589E11   -1.615880926276896E1  -4.978874109949693E1  -1.145298943211366E1   9.582248361818675E1  -1.147763301033431E1   6.279053958501425E1  -1.792898950635662E1  -1.985937011976427E1  
 1.713691931540342E11   -1.609187142758399E1  -7.815479214204146E1  -1.160917132259025E1   4.960574139791540E1  -1.162318536304946E1   1.652743994132097E1  -1.803082306971330E1  -5.157091424606918E1  
 1.713814180929096E11   -1.850149048981146E1  -1.013692501872008E2  -1.144842617779333E1   4.138617969991124  -1.147795384673096E1  -2.892280987396656E1  -2.256507040045295E1  -7.556520582864515E1  
 1.713936430317849E11   -2.116650481555330E1  -1.064564634563203E2  -1.113084367262363E1  -4.391810227936818E1  -1.113580310860332E1  -7.660623883368525E1  -2.839677457858791E1  -4.791525921029700E1  
 1.714058679706602E11   -2.161284489818412E1  -1.086624059536564E2  -1.110665709289576E1  -9.272408016620800E1  -1.111873801663511E1  -1.253164194669922E2  -2.531392926363280E1  -3.052256970666515E1  
 1.714180929095355E11   -2.155014398873176E1  -1.292897465154579E2  -1.127894976822946E1  -1.398787610727428E2  -1.126835408041088E1  -1.723624338002697E2  -2.729140780586392E1  -3.900893617293775E1  
 1.714303178484108E11   -2.549802859908510E1  -1.519394747215713E2  -1.105642723711772E1   1.736239467727354E2  -1.105196361774275E1   1.408779567428951E2  -2.677400339335571E1  -6.602155566554658E-1  
 1.714425427872861E11   -3.035640712863669E1  -1.510707126370688E2  -1.087576246121907E1   1.243701692962882E2  -1.088798722973539E1   9.269516547794780E1  -2.238628989942222E1  -4.936654423276258  
 1.714547677261614E11   -3.106100726310477E1  -1.480079796031780E2  -1.099431813312878E1   7.551796216935499E1  -1.097720164730978E1   4.398214890279829E1  -2.135100037384900E1  -2.281032371987934E1  
 1.714669926650367E11   -3.303004896034886E1   1.606831262886505E2  -1.107440824737950E1   2.913084410297334E1  -1.108325605808844E1  -3.465310603756705  -2.355594502710993E1  -2.416432233862980E1  
 1.714792176039120E11   -3.293805598556122E1   4.234971578484100E1  -1.099293753847933E1  -1.909589115114354E1  -1.100087363155250E1  -5.102109052027689E1  -2.164043965610476E1  -6.362233389522533  
 1.714914425427873E11   -2.689888885121953E1  -2.554558640039947E1  -1.111506300473328E1  -6.804997012459263E1  -1.107601217938227E1  -9.933980886447618E1  -1.834909781941776E1  -1.803816672080708E1  
 1.715036674816626E11   -2.605552646222850E1  -7.906331958696731E1  -1.142229502257042E1  -1.154683258055472E2  -1.142278981593047E1  -1.470645147081295E2  -1.788379375221652E1  -3.985729340776960E1  
 1.715158924205379E11   -3.340991999500592E1  -1.271586817139039E2  -1.148260929636274E1  -1.613341215231646E2  -1.143682406521854E1   1.676330472544203E2  -2.035864225434786E1  -5.030483308984109E1  
 1.715281173594132E11   -3.601864602640228E1  -1.120065446657169E1  -1.130304608293407E1   1.506159791145033E2  -1.129439964214211E1   1.198131664052254E2  -2.027737394885454E1  -3.633140807379250E1  
 1.715403422982885E11   -2.638230330824811E1  -4.122202473353377E1  -1.154496212656604E1   1.021597745226592E2  -1.151198295176575E1   7.089244429305458E1  -1.746979801986253E1  -4.450894126142317E1  
 1.715525672371638E11   -2.461168193605836E1  -9.130780088725740E1  -1.196285512509701E1   5.598026626153664E1  -1.196761268763568E1   2.562489093952028E1  -1.709584841506766E1  -6.978145834649892E1  
 1.715647921760391E11   -3.114557131910204E1  -1.376749336286029E2  -1.173853670945661E1   1.263222559994942E1  -1.175693987411587E1  -1.810804607309953E1  -2.006392534800289E1  -8.665585096811408E1  
 1.715770171149144E11   -4.286611418694545E1  -6.240607040816471E1  -1.136062941743354E1  -3.509418477468869E1  -1.136869975108962E1  -6.590525068332833E1  -2.227749231147358E1  -7.851404055149214E1  
 1.715892420537897E11   -3.228546402624416E1  -4.592402687757240E1  -1.137967972429038E1  -8.367041665794940E1  -1.137145110284762E1  -1.143500297176813E2  -2.091786363062520E1  -8.071501690885404E1  
 1.716014669926650E11   -3.242441070042715E1  -6.964202989653843E1  -1.148654044564499E1  -1.300337203303763E2  -1.151180966657167E1  -1.605272515812152E2  -2.114665487440418E1  -1.055862422954791E2  
 1.716136919315403E11   -3.000827119315871E1  -4.627047066315807E1  -1.121391655413287E1  -1.763829595430324E2  -1.120975483918706E1   1.531580392529842E2  -2.510130417262937E1  -1.372581338231917E2  
 1.716259168704157E11   -2.594747797081668E1  -7.386110568358851E1  -1.101772045766812E1   1.346727729046372E2  -1.102492620911629E1   1.043870113958458E2  -3.468549690106993E1   1.768728452850450E2  
 1.716381418092910E11   -2.550148985934303E1  -1.117227816284134E2  -1.106888957131476E1   8.593831002010629E1  -1.108737744126094E1   5.618135853821548E1  -3.786931097970188E1   4.571992313325783E1  
 1.716503667481663E11   -2.976668605892133E1  -1.641152838695502E2  -1.115207200919236E1   3.865300916666656E1  -1.114570487657064E1   8.767427335673913  -3.029050264328140E1   4.824357157066487E1  
 1.716625916870416E11   -4.282235938421333E1   8.411616442589184E1  -1.104681845027204E1  -9.462603354451099  -1.102341752217632E1  -3.887562087703566E1  -2.261586080845501E1   3.378679791929607E1  
 1.716748166259169E11   -3.309842133310860E1  -3.738525325416518E1  -1.115467659413243E1  -5.761266097068269E1  -1.114947893898524E1  -8.736020342773313E1  -1.886439715897514E1   6.983835552318457  
 1.716870415647922E11   -3.090353858443781E1  -9.950867057565756E1  -1.136799418157801E1  -1.047711783640768E2  -1.138845634189616E1  -1.338853641195066E2  -1.811064882282178E1  -2.079546344820528E1  
 1.716992665036675E11   -3.564430733817277E1   1.758716955463316E2  -1.122337436459267E1  -1.501694904285104E2  -1.122710025215105E1  -1.798428763022044E2  -1.993518322087938E1  -3.305261640396780E1  
 1.717114914425428E11   -3.261361692854066E1   6.557172212235116E1  -1.098060457311225E1   1.612794559106751E2  -1.099927219534117E1   1.313560476607250E2  -2.002265983178579E1  -2.780875145870549E1  
 1.717237163814181E11   -2.696776329656170E1   5.594324875549007  -1.111296862795325E1   1.126895482905765E2  -1.111777519343946E1   8.266681886250005E1  -1.838054192294908E1  -3.205344056156916E1  
 1.717359413202934E11   -2.664283734030076E1  -4.333384954812160E1  -1.141521427993495E1   6.554020222651650E1  -1.140265477953212E1   3.613151090602683E1  -1.776914552995068E1  -4.614150556899680E1  
 1.717481662591687E11   -3.198690530555804E1  -5.941966831268745E1  -1.128078285239368E1   1.991829383793662E1  -1.131078619129915E1  -9.725551467416695  -1.915621914153869E1  -5.101393362968675E1  
 1.717603911980440E11   -3.358010321137725E1  -2.780250477279097E1  -1.110643639353752E1  -2.820547442475492E1  -1.109351189803741E1  -5.779340817938719E1  -1.846823924977468E1  -4.575995504717197E1  
 1.717726161369193E11   -2.781597146142206E1  -2.805178758607767E1  -1.122060546478010E1  -7.666326572183263E1  -1.120529531851417E1  -1.062928637103374E2  -1.685460257529951E1  -5.453550042073977E1  
 1.717848410757946E11   -2.753938272008168E1  -5.580160216917675E1  -1.137052565013418E1  -1.226568514811136E2  -1.137884879598345E1  -1.526348267041978E2  -1.709714456758630E1  -7.312250712528548E1  
 1.717970660146699E11   -2.950295396684521E1  -4.954799837166965E1  -1.114662954177629E1  -1.693408574437967E2  -1.116647801899189E1   1.608541676841094E2  -2.000562958267427E1  -8.194413520484196E1  
 1.718092909535452E11   -2.717305403570814E1  -4.482140024681822E1  -1.099038744816098E1   1.420818357449363E2  -1.101011541289105E1   1.122748118378561E2  -2.153962293562796E1  -6.402311975172064E1  
 1.718215158924205E11   -2.445512101222271E1  -5.967718166317667E1  -1.111001285670457E1   9.420205214633408E1  -1.112267543652996E1   6.371480658924268E1  -1.923804027691340E1  -6.061222249573266E1  
 1.718337408312958E11   -2.556572629703256E1  -8.567190116187565E1  -1.119161518642895E1   4.775661297138684E1  -1.123010327259597E1   1.743179916933029E1  -1.935144424850882E1  -7.318670293448955E1  
 1.718459657701711E11   -2.909239830586680E1  -7.876713607099856E1  -1.101948569760135E1   4.722715205313004E-2  -1.105584933693877E1  -3.053609362155130E1  -2.111973050593687E1  -6.827176857339602E1  
 1.718581907090465E11   -2.563976281928096E1  -6.311849276009578E1  -1.108881689295568E1  -4.890929292568203E1  -1.110724204861200E1  -7.956340017708949E1  -1.956849399361767E1  -5.349785758258152E1  
 1.718704156479218E11   -2.227398650701374E1  -8.736451425756975E1  -1.133259043213147E1  -9.610733734231776E1  -1.136814700618369E1  -1.268607323160816E2  -1.692067669530146E1  -6.150005084373039E1  
 1.718826405867971E11   -2.222490846915038E1  -1.199656395817613E2  -1.130020036461851E1  -1.423894201980913E2  -1.134277517568141E1  -1.733351253088693E2  -1.648444463097813E1  -7.555757696464779E1  
 1.718948655256724E11   -2.349220601287268E1  -1.557959111053407E2  -1.123485669717815E1   1.694571969434539E2  -1.126737054386298E1   1.387206754741889E2  -1.694656841279431E1  -8.132076880288767E1  
 1.719070904645477E11   -2.842727353073685E1   1.531416601039066E2  -1.143391135679056E1   1.214456486099255E2  -1.142701947374779E1   9.090974010502151E1  -1.633152870654681E1  -8.254491138702127E1  
 1.719193154034230E11   -3.811339717207138E1   7.461631411566286E1  -1.161397293054131E1   7.571009581821838E1  -1.165548319463087E1   4.441790889747657E1  -1.501926771522575E1  -9.435884414789824E1  
 1.719315403422983E11   -3.384977823284303E1  -2.037183245138753E1  -1.145538503338361E1   3.038223000816640E1  -1.148883107968205E1  -1.294735909574875  -1.533390220469401E1  -1.139444325258815E2  
 1.719437652811736E11   -3.082679562459891E1  -7.886672446335186E1  -1.120552434449052E1  -1.785041195703253E1  -1.124658627094814E1  -4.922239071508412E1  -1.756710264143510E1  -1.291289702670817E2  
 1.719559902200489E11   -3.393012477308162E1  -1.247293257589466E2  -1.124499234334692E1  -6.566940914859833E1  -1.127976721086308E1  -9.775022185672933E1  -2.012842879067106E1  -1.270605486028405E2  
 1.719682151589242E11   -3.958486502462326E1   1.333375669545733E2  -1.138902535041644E1  -1.132623782191713E2  -1.140934169783895E1  -1.452591650926186E2  -1.989421989623737E1  -1.262932117144225E2  
 1.719804400977995E11   -2.897044832261098E1   1.785505036683989E1  -1.125844053353882E1  -1.602327543214115E2  -1.127754209677069E1   1.674364819184839E2  -2.130249037714858E1  -1.422591570719041E2  
 1.719926650366748E11   -2.541971375080956E1  -3.002389646052935E1  -1.124370268687887E1   1.513567680532272E2  -1.128205802638743E1   1.188903458713312E2  -2.728614881718067E1  -1.427190384942338E2  
 1.720048899755501E11   -2.499326103764702E1  -6.371021587664018E1  -1.151960207630055E1   1.032878431031406E2  -1.153532720479334E1   7.071836639375763E1  -2.545894280235498E1  -8.939537672870878E1  
 1.720171149144254E11   -2.917953349880181E1  -9.094720028877629E1  -1.166133123925358E1   5.768124269409738E1  -1.167289564884086E1   2.503296812202722E1  -2.174498658550097E1  -1.097632523146897E2  
 1.720293398533007E11   -3.077610236543251E1  -4.962298202379736E1  -1.152881941564089E1   1.055950940210110E1  -1.154814994917847E1  -2.242209423309382E1  -2.364400807779374E1  -1.327677010953401E2  
 1.720415647921760E11   -2.544642370997479E1  -6.185853446102022E1  -1.170285063130372E1  -3.690384026521975E1  -1.173432597459914E1  -7.020327013068106E1  -3.075565730345755E1  -1.148675039972672E2  
 1.720537897310513E11   -2.422823136456159E1  -9.714555940137458E1  -1.194088693328422E1  -8.168773043275780E1  -1.196423559281025E1  -1.151802553795014E2  -2.478577000064044E1  -7.817995461165715E1  
 1.720660146699266E11   -2.993949854237569E1  -1.250527596407662E2  -1.150306712468712E1  -1.269516232348986E2  -1.153320009399934E1  -1.604830587290750E2  -2.246602203408843E1  -9.285689187080126E1  
 1.720782396088019E11   -3.248203608717272E1  -7.748880399819495E1  -1.118139958101238E1  -1.757011595005286E2  -1.121240608842778E1   1.507689247389324E2  -2.213695142454474E1  -1.008158631219494E2  
 1.720904645476773E11   -2.764808818040110E1  -7.414854815337220E1  -1.128360604663601E1   1.355730169502504E2  -1.132444408858671E1   1.014367825561818E2  -2.197206620320004E1  -1.030184081963352E2  
 1.721026894865526E11   -2.602714806072500E1  -1.032737044452210E2  -1.145551752676808E1   8.972413899625235E1  -1.148058741912583E1   5.469782337564323E1  -2.045324109566360E1  -1.107411635612979E2  
 1.721149144254279E11   -2.990359474965391E1  -1.131876970192657E2  -1.123568091032428E1   4.261998295946039E1  -1.126615511509180E1   8.046482062414459  -2.046640894249826E1  -1.279325986119860E2  
 1.721271393643032E11   -2.913636299700838E1  -1.042626164919182E2  -1.109510496855488E1  -5.911300765213476  -1.111908150844011E1  -4.053500179063236E1  -2.178335427830028E1  -1.432319568759271E2  
 1.721393643031785E11   -2.769440073219487E1  -1.182373639627471E2  -1.131598358836977E1  -5.427257658727616E1  -1.134807820989571E1  -8.890592646724302E1  -2.368880998729168E1  -1.497213019649971E2  
 1.721515892420538E11   -2.836166007641189E1  -1.635739155366613E2  -1.137530564867039E1  -9.973583915388709E1  -1.139132322515117E1  -1.345251880529672E2  -2.431486228793193E1  -1.615718929748659E2  
 1.721638141809291E11   -3.252567499353529E1   9.773859319752646E1  -1.106880427635255E1  -1.471086576419202E2  -1.110312933977043E1   1.782071448979443E2  -2.778241052872403E1   1.712597472607121E2  
 1.721760391198044E11   -2.709615517392070E1   1.262665964094725  -1.104170994084986E1   1.640839869729336E2  -1.107248368677780E1   1.292616490222347E2  -3.500361231312017E1   1.139122611386198E2  
 1.721882640586797E11   -2.385401324543679E1  -5.004026099235111E1  -1.128203872324053E1   1.164778859400548E2  -1.128498155048388E1   8.139528081654731E1  -3.281000580968582E1  -1.929731584664357E1  
 1.722004889975550E11   -2.565330369257142E1  -8.813873455659308E1  -1.120228388772222E1   7.035503742985453E1  -1.125809183068210E1   3.533092450948418E1  -2.990492385372682E1  -6.069864689309463E1  
 1.722127139364303E11   -2.977661133913746E1  -8.283529973461521E1  -1.104603888812043E1   2.240569769492166E1  -1.107157386206965E1  -1.270720576539443E1  -3.014191396920127E1  -6.147283678840146E1  
 1.722249388753056E11   -2.740333351791158E1  -6.041006503846517E1  -1.117789594683629E1  -2.588503741408196E1  -1.120366792470716E1  -6.143291927924022E1  -2.723677136937630E1  -4.785210917530849E1  
 1.722371638141809E11   -2.381020246359737E1  -7.333450326847620E1  -1.135975787329537E1  -7.238040609519352E1  -1.141022577723763E1  -1.072964813902662E2  -2.324382321717231E1  -6.244580609237087E1  
 1.722493887530562E11   -2.330583930509360E1  -9.128385521459235E1  -1.110127554721088E1  -1.183243582575398E2  -1.112427182206932E1  -1.533290985429028E2  -2.266526014786609E1  -8.313081659113814E1  
 1.722616136919315E11   -2.351979000771142E1  -9.902932129666293E1  -1.088439495613281E1  -1.669087716843328E2  -1.091861209358658E1   1.581326226219542E2  -2.346763126345041E1  -9.659095754978139E1  
 1.722738386308069E11   -2.321723077574594E1  -9.936767384803207E1  -1.095522089977220E1   1.438769754824615E2  -1.098486124836861E1   1.088563481578589E2  -2.539080559785505E1  -9.293310905818605E1  
 1.722860635696822E11   -2.131010912681672E1  -1.092257076249764E2  -1.115657505694310E1   9.677389819196198E1  -1.119464637565522E1   6.218765941973628E1  -2.368224383243794E1  -8.431907139366665E1  
 1.722982885085575E11   -2.139377552239391E1  -1.254777252708847E2  -1.101101336254040E1   5.018291496936048E1  -1.101978960005210E1   1.565194364619497E1  -2.212073282711144E1  -9.018958391666486E1  
 1.723105134474328E11   -2.148063211804016E1  -1.374959396668839E2  -1.087762295840673E1   1.471321726387705  -1.090347191491326E1  -3.302540203260333E1  -2.098299879812187E1  -1.053907485586781E2  
 1.723227383863081E11   -2.243741003033878E1  -1.470556256730143E2  -1.100604994238884E1  -4.775318902681757E1  -1.102913031915803E1  -8.117027940349780E1  -2.128236079660746E1  -1.221968029038805E2  
 1.723349633251834E11   -2.220764101440011E1  -1.546425128855495E2  -1.124815683433019E1  -9.438442985313537E1  -1.129752774606687E1  -1.282209957123887E2  -2.219757413378761E1  -1.404592335037808E2  
 1.723471882640587E11   -2.303693999916022E1  -1.746384104783365E2  -1.115558555928841E1  -1.416893831959653E2  -1.116119648963276E1  -1.745442609369065E2  -2.536034213183221E1  -1.625058513014547E2  
 1.723594132029340E11   -2.591702542912221E1   1.705205318761452E2  -1.112773568976103E1   1.699034343278981E2  -1.111754046713764E1   1.371464754099500E2  -3.384888661301564E1  -1.768508374823323E2  
 1.723716381418093E11   -2.939321650697595E1  -1.741454070292593E2  -1.133005652279718E1   1.222696224784398E2  -1.130644050323054E1   8.937973249066008E1  -3.528096130313833E1  -8.532821016313311E1  
 1.723838630806846E11   -2.689040682305435E1  -1.708939285943378E2  -1.132636000771276E1   7.625576416945278E1  -1.131501786661907E1   4.387328929732450E1  -3.260578108199000E1  -9.536489780406237E1  
 1.723960880195599E11   -2.740883476491105E1   1.688196026327971E2  -1.112598920387866E1   2.813900881115438E1  -1.107903426418411E1  -3.774926193388051  -3.386847951487391E1  -5.941141704147502E1  
 1.724083129584352E11   -3.102492850019507E1   1.535164230516924E2  -1.123172458776805E1  -2.133105631387592E1  -1.124122151622238E1  -5.324988353049473E1  -2.770838105214559E1  -4.147658853512748E1  
 1.724205378973105E11   -3.456134003219610E1  -1.696723383831150E2  -1.161726805479093E1  -6.874955326577198E1  -1.158258701655672E1  -1.000689156809894E2  -2.208065075182017E1  -5.839287016998952E1  
 1.724327628361858E11   -3.176835279713314E1   1.625741295730465E2  -1.156510133204759E1  -1.136742097193957E2  -1.156423031030037E1  -1.442941495628654E2  -2.082624442755282E1  -8.823050745692359E1  
 1.724449877750611E11   -4.268832055296553E1   7.461159947168297E1  -1.130907535118920E1  -1.616043219362035E2  -1.130617005673136E1   1.679089592209909E2  -2.290163742702167E1  -1.089126794952234E2  
 1.724572127139364E11   -3.054726026402715E1  -5.522654642505682E1  -1.144594023394083E1   1.493830823828373E2  -1.145851761907499E1   1.185748357125202E2  -2.646145063079679E1  -1.006958590696185E2  
 1.724694376528117E11   -2.421909930801009E1  -9.890215679448765E1  -1.178079647326299E1   1.029144741491388E2  -1.182307693233483E1   7.292340953090030E1  -2.346317037081690E1  -8.562956386648763E1  
 1.724816625916870E11   -2.408804518754134E1  -1.302455938205049E2  -1.152017948091581E1   5.771240443592895E1  -1.153623565469190E1   2.811376389387796E1  -2.205414617602575E1  -9.744245372434311E1  
 1.724938875305624E11   -2.359353410002588E1  -1.356647213201372E2  -1.127484405763226E1   8.665613841239887  -1.128725631357366E1  -2.105422343007749E1  -2.085443338440433E1  -1.049234670748309E2  
 1.725061124694377E11   -2.168180935825087E1  -1.450694425134109E2  -1.157539951431708E1  -4.028188845757725E1  -1.153483845873130E1  -7.014743703774701E1  -1.962575303400457E1  -1.185498333326579E2  
 1.725183374083130E11   -1.941464716108280E1  -1.665388367464753E2  -1.178662295077137E1  -8.558208573175287E1  -1.177721700257761E1  -1.150000233937232E2  -1.915183871578219E1  -1.426961086230327E2  
 1.725305623471883E11   -1.955578722906548E1   1.611629683602930E2  -1.147683773583337E1  -1.319841869877721E2  -1.146810261565886E1  -1.614285756721504E2  -2.183390941326418E1  -1.731796770727315E2  
 1.725427872860636E11   -2.233826755094042E1   1.375708088022067E2  -1.141589781575602E1   1.789571189652610E2  -1.142199342377639E1   1.498277843839370E2  -2.868283357330963E1   1.656326102239698E2  
 1.725550122249389E11   -2.720394513547796E1   1.336441442084553E2  -1.170925484213973E1   1.317058925130970E2  -1.171329551793367E1   1.019667476910792E2  -3.297459165296051E1  -1.278918743629205E2  
 1.725672371638142E11   -2.591251652299822E1   1.447735902800815E2  -1.169342879780164E1   8.659665977111395E1  -1.169677292846999E1   5.731369052685162E1  -2.894788017095814E1  -1.427998939271788E2  
 1.725794621026895E11   -2.675285932691496E1   1.245634112060873E2  -1.129247508966359E1   3.870839763500772E1  -1.129683132071604E1   1.007083872635026E1  -3.353965627863487E1  -1.661464576587553E2  
 1.725916870415648E11   -3.197244242592488E1   1.122612732982215E2  -1.131289810620401E1  -1.065562185896789E1  -1.129424966077842E1  -3.901081493304820E1  -3.949752519277846E1  -8.557122200541070E1  
 1.726039119804401E11   -3.405217974718255E1  -1.693111153746503E2  -1.155176134228772E1  -5.768130997486361E1  -1.155557254800628E1  -8.615138534036372E1  -3.063985206191072E1  -8.273645635698820E1  
 1.726161369193154E11   -2.597334723574279E1   1.732836284429068E2  -1.135478887281185E1  -1.031630740479744E2  -1.135751200358061E1  -1.320275689118590E2  -3.194360914974503E1  -1.097659476481175E2  
 1.726283618581907E11   -2.503626729025976E1   1.456215170102119E2  -1.115540948615400E1  -1.517367950287038E2  -1.116585294196470E1   1.787509853082689E2  -3.221703607095284E1  -6.660435500303724E1  
 1.726405867970660E11   -2.773728933648451E1   1.276255582460638E2  -1.134038286146558E1   1.587536985871430E2  -1.137730522157958E1   1.296654169901896E2  -2.648638592368205E1  -6.786807517080300E1  
 1.726528117359413E11   -2.911080335441645E1   1.602605298064255E2  -1.168102843234350E1   1.127031008881006E2  -1.170592845220886E1   8.338254310103004E1  -2.384842226369649E1  -9.133791791465750E1  
 1.726650366748166E11   -2.448047397813519E1   1.473811149158465E2  -1.145377990548798E1   6.722324653840896E1  -1.143123824390041E1   3.752295239533145E1  -2.620023680426158E1  -1.151238725898321E2  
 1.726772616136919E11   -2.363478701428019E1   1.262516992032592E2  -1.131571386316517E1   1.836235736946976E1  -1.132597415945028E1  -1.148850897202507E1  -2.820903815676484E1  -9.072398459907613E1  
 1.726894865525672E11   -2.491933563893367E1   1.130534413161438E2  -1.160310114822264E1  -2.953688155720300E1  -1.162068047855273E1  -5.951031568171862E1  -2.347677641532245E1  -8.834202633849020E1  
 1.727017114914425E11   -2.430961981940721E1   1.205755984620224E2  -1.174779531250445E1  -7.407709746110498E1  -1.174393663260111E1  -1.048687345779744E2  -2.069657618507319E1  -1.173658120446148E2  
 1.727139364303178E11   -2.184466033478530E1   9.803350261639059E1  -1.134138365108522E1  -1.205457238984394E2  -1.137328507864132E1  -1.508188680080618E2  -2.238404184999939E1  -1.540160332058078E2  
 1.727261613691932E11   -2.245414112412132E1   7.083099246952888E1  -1.120733815873697E1  -1.690453043133937E2  -1.119084910966357E1   1.595777820660556E2  -2.912368029458146E1   1.764041755914965E2  
 1.727383863080685E11   -2.533006066922750E1   4.523070431101782E1  -1.144055634640442E1   1.428308075506321E2  -1.142327825839417E1   1.121864861501809E2  -3.764164156901305E1  -9.212818615560552E1  
 1.727506112469438E11   -3.042564707159782E1   4.318314080896404E1  -1.130259877064038E1   9.749227467524609E1  -1.131471357520525E1   6.621424139203091E1  -3.097670329390540E1  -1.026839496923882E2  
 1.727628361858191E11   -3.316874045957020E1   5.924099800753436E1  -1.098631906892669E1   4.963711749080750E1  -1.103452209087621E1   1.761012580251741E1  -3.142521041656693E1  -9.705965982261760E1  
 1.727750611246944E11   -3.128583495344160E1   8.822226069976435E1  -1.099957553947024E1  -1.418709472525571E-1  -1.100760510797165E1  -3.165613325435562E1  -2.859358406798292E1  -8.068316146167074E1  
 1.727872860635697E11   -2.950600421346489E1   7.735343346926570E1  -1.121881974135834E1  -4.765324462598656E1  -1.123825888659434E1  -7.999479715817387E1  -2.475776731617487E1  -8.737634215620976E1  
 1.727995110024450E11   -2.898789355847177E1   6.438863471396606E1  -1.123567199692483E1  -9.401890865375545E1  -1.122393722779526E1  -1.265349517389990E2  -2.385880430530112E1  -1.096149970826875E2  
 1.728117359413203E11   -3.058761032162877E1   5.807113834595148E1  -1.110322326478549E1  -1.420814918762254E2  -1.112905642412139E1  -1.749550965915645E2  -2.499523663431936E1  -1.186824401041034E2  
 1.728239608801956E11   -3.157702657056639E1   5.903956325635411E1  -1.131559219859491E1   1.689106412351314E2  -1.132872714537558E1   1.360562805724795E2  -2.483139035163862E1  -1.147684260380048E2  
 1.728361858190709E11   -3.220275683183034E1   7.894807388709140E1  -1.163836730936625E1   1.232298064922768E2  -1.165217834585680E1   8.926365924883638E1  -2.200915607717587E1  -1.204300081020628E2  
 1.728484107579462E11   -2.692555882081708E1   7.842816307599689E1  -1.145634004658189E1   7.752939793592866E1  -1.146799541773052E1   4.350845773731015E1  -2.121491256320208E1  -1.488881491728315E2  
 1.728606356968215E11   -2.525762577254384E1   4.360125960249611E1  -1.130482142529441E1   2.905676928385991E1  -1.134782371193104E1  -5.223700924254808  -2.336388113602445E1  -1.744053357473719E2  
 1.728728606356968E11   -2.695577219352050E1   1.694743991689780E1  -1.157697312019130E1  -1.909367661523922E1  -1.160781412025746E1  -5.358088367865523E1  -2.810651506853080E1   1.748322221689078E2  
 1.728850855745721E11   -3.349980945840022E1   4.497226409001966  -1.176442078958447E1  -6.431795569382824E1  -1.180442109833742E1  -9.853510081717994E1  -2.790162320018868E1  -1.661662443290321E2  
 1.728973105134475E11   -3.149753603154446E1   5.008074591362557E1  -1.145720108382671E1  -1.109056666693731E2  -1.147615428807357E1  -1.456677725206980E2  -2.634388357193074E1   1.679602484098514E2  
 1.729095354523228E11   -2.696237941506867E1   2.700221264805336E1  -1.138352725774908E1  -1.599869937996569E2  -1.136605726695173E1   1.653971941221883E2  -2.878120556944030E1   1.230463887954319E2  
 1.729217603911981E11   -2.724642793790405E1  -1.597367463369204E1  -1.171733938118764E1   1.525385654990010E2  -1.172496112222258E1   1.178222801777058E2  -3.481843200862262E1   5.898255046911972E1  
 1.729339853300734E11   -3.700055498957048E1  -7.457472739561261E1  -1.167782231667033E1   1.077840524375097E2  -1.168017736249025E1   7.223416894591153E1  -4.986310323400157E1   8.980548804381898E1  
 1.729462102689487E11   -3.443651387086001E1   9.524564325054143E1  -1.138017698700839E1   6.024851679813919E1  -1.141092599537025E1   2.398322365157652E1  -3.280977139447043E1   4.956180856449505E1  
 1.729584352078240E11   -2.659616199925181E1   5.774767359444969E1  -1.150633659241291E1   1.136408165259431E1  -1.151666957504088E1  -2.496126864550788E1  -2.726170341486899E1   7.315349776665443  
 1.729706601466993E11   -2.401530916507939E1   1.328197631383145E1  -1.182904014830458E1  -3.507461041103856E1  -1.183294573793547E1  -7.153951345736518E1  -2.412563084583353E1  -2.960286314133186E1  
 1.729828850855746E11   -2.511981985191328E1  -2.002159504887796E1  -1.163239676082544E1  -8.044813955277493E1  -1.165687864115638E1  -1.167155507206002E2  -2.356086909636058E1  -5.214418318340730E1  
 1.729951100244499E11   -2.629526987570199E1  -4.856256763902356E1  -1.138747263680113E1  -1.285760173284828E2  -1.141446430459784E1  -1.648925308476752E2  -2.199892011961020E1  -6.444294709760030E1  
 1.730073349633252E11   -2.880227341597871E1  -7.858071109814111E1  -1.150908451648528E1  -1.777017305471489E2  -1.153762321406703E1   1.461189102157400E2  -2.016140632477113E1  -8.389444152417923E1  
 1.730195599022005E11   -3.277591196736204E1  -1.223137102658197E2  -1.176975330299903E1   1.363936787995312E2  -1.178727065709250E1   1.006764576956874E2  -1.886359823095749E1  -1.106822808185271E2  
 1.730317848410758E11   -3.599279713495663E1   1.429750066130997E2  -1.148046513582342E1   9.049990658754420E1  -1.149574145009392E1   5.475269224320385E1  -1.983272837449189E1  -1.430977886729708E2  
 1.730440097799511E11   -2.957681876835996E1   5.005945821885224E1  -1.123002041704021E1   4.213284533539675E1  -1.129524429428725E1   6.547401301827857  -2.373699147100255E1  -1.757155961020089E2  
 1.730562347188264E11   -2.638767800590411E1  -2.904842216027460  -1.137431718698451E1  -6.682154897692652  -1.138600950179044E1  -4.260237084160957E1  -3.595564725385584E1  -1.757880661174903E2  
 1.730684596577017E11   -2.761192287597132E1  -4.442083636122425E1  -1.131098257988294E1  -5.298257081962643E1  -1.141045721424274E1  -8.778157250222978E1  -2.968710312653826E1  -1.097829603846535E2  
 1.730806845965770E11   -2.836628409833339E1  -5.342428427871534E1  -1.106269459934549E1  -1.008710356353524E2  -1.113671925030017E1  -1.359273662356336E2  -2.868539336215917E1  -1.186281274676376E2  
 1.730929095354523E11   -2.576156322978957E1  -6.849570847006959E1  -1.108357989820839E1  -1.501812333661082E2  -1.114469451192489E1   1.747187284426743E2  -2.654466496468791E1  -1.193475758116928E2  
 1.731051344743276E11   -2.295589318400969E1  -1.053511572987724E2  -1.139245368884699E1   1.618021262808368E2  -1.142307488085151E1   1.266658466364155E2  -2.479139013387228E1  -1.316124574458282E2  
 1.731173594132029E11   -2.199606185362036E1  -1.496283638119875E2  -1.141496869988922E1   1.148029344154341E2  -1.143428921610114E1   8.027205747891327E1  -2.341898852465184E1  -1.584522422117288E2  
 1.731295843520783E11   -2.319598369956122E1   1.672416607413340E2  -1.129350889474830E1   6.652318900707940E1  -1.136468290885567E1   3.301583053747271E1  -2.568815658039070E1   1.659414524462351E2  
 1.731418092909536E11   -2.578322668096391E1   1.301797508687803E2  -1.152980293794096E1   1.765163268745951E1  -1.155320912311424E1  -1.610694884615702E1  -3.298008350876901E1   1.260966177789110E2  
 1.731540342298289E11   -3.134779092146356E1   1.271570456944152E2  -1.196484120396874E1  -2.825223029568507E1  -1.195824765341329E1  -6.156240062015212E1  -3.531243635363678E1  -7.169299482890895E1  
 1.731662591687042E11   -2.667548444463727E1   1.263830660953102E2  -1.170614105471958E1  -7.274163959556837E1  -1.173051340385987E1  -1.055927756950270E2  -2.837449260220609E1  -1.309079279479271E2  
 1.731784841075795E11   -2.553247947471346E1   8.967481641350875E1  -1.136469080503628E1  -1.213168911337695E2  -1.140168458498835E1  -1.543483184685749E2  -3.162391186783483E1  -1.672873494805185E2  
 1.731907090464548E11   -2.664159074444201E1   4.736429819248640E1  -1.150447597886997E1  -1.704185539981889E2  -1.153404074345661E1   1.569745391955172E2  -3.978454096921824E1  -1.076004959661766E2  
 1.732029339853301E11   -3.365773077226759E1  -1.844235435325211E1  -1.179615558073006E1   1.434549501676970E2  -1.188897969119114E1   1.107797186790143E2  -2.631024707836004E1  -1.046576729590922E2  
 1.732151589242054E11   -3.293558491702662E1   1.476857496309941E2  -1.155439718518574E1   9.756144403550580E1  -1.157147895966506E1   6.496852087281998E1  -2.366249140080726E1  -1.519679525402955E2  
 1.732273838630807E11   -2.763800854383737E1   8.991980391901564E1  -1.135830442314404E1   4.794337855226788E1  -1.138047046263476E1   1.659498925615695E1  -2.590525860974701E1   1.703523835614167E2  
 1.732396088019560E11   -2.789909201924257E1   4.363164348306064E1  -1.160638259413124E1   2.408020469268997E-1  -1.161208102868472E1  -3.203913977135458E1  -3.305820954680312E1   1.767578528061802E2  
 1.732518337408313E11   -3.764910966723398E1   1.706872916039094E1  -1.167752116639761E1  -4.582453722919340E1  -1.167967367527440E1  -7.756861843583997E1  -2.517632569414989E1  -1.593509958284876E2  
 1.732640586797066E11   -3.254963750493092E1   1.035720091892137E2  -1.150462201424934E1  -9.389846237587173E1  -1.151953144610496E1  -1.245921093897308E2  -2.159303465660458E1   1.619287034388595E2  
 1.732762836185819E11   -2.561831288314886E1   7.232933362610578E1  -1.151128410083163E1  -1.420510036594332E2  -1.155908083281706E1  -1.730438437438796E2  -2.112234024007180E1   1.217171145592162E2  
 1.732885085574572E11   -2.393007479262558E1   2.927759913376752E1  -1.182095085935674E1   1.700931994401899E2  -1.189194141645604E1   1.390711919669847E2  -2.257530965490078E1   8.326366309442395E1  
 1.733007334963325E11   -2.664328346811881E1  -1.508503870708363E1  -1.178256124719754E1   1.258824976597493E2  -1.180871472921834E1   9.563704510624454E1  -2.616804616133461E1   6.621120203630179E1  
 1.733129584352078E11   -3.253564106255715E1  -3.394776546466502E1  -1.143971682008679E1   7.869618667657103E1  -1.145925974580433E1   4.851680375798914E1  -2.432727666398984E1   6.244200080261690E1  
 1.733251833740831E11   -3.724318830571364E1   3.270406680498983  -1.139588753367018E1   2.969550270268785E1  -1.138081057055399E1  -7.477153233273252E-1  -2.285973790352399E1   3.152940158428119E1  
 1.733374083129584E11   -3.189402274834941E1  -2.678459735523027E1  -1.149224695756087E1  -1.737868099729843E1  -1.150796600865046E1  -4.709600759792441E1  -2.484617402422243E1  -6.914661104660159  
 1.733496332518337E11   -3.309530251606671E1  -8.686179686598192E1  -1.122141030440045E1  -6.433846189464194E1  -1.126456869081235E1  -9.343886437890346E1  -3.104022667312116E1  -1.414344873220405E1  
 1.733618581907091E11   -3.358903155310855E1  -1.572600678101368E2  -1.103371849538677E1  -1.130045380527401E2  -1.111513054394631E1  -1.431540750542973E2  -2.817866077156772E1   1.660989972329823E1  
 1.733740831295844E11   -3.212282177312137E1   1.480561982586478E2  -1.114576370067002E1  -1.624019839976365E2  -1.121629876674331E1   1.680242292034669E2  -2.379759395090945E1  -4.619310225121853  
 1.733863080684597E11   -3.145373000794342E1   1.206930854994782E2  -1.137786583128978E1   1.497240738581243E2  -1.139785188446875E1   1.205302959335659E2  -2.279110788953352E1  -4.872568877930347E1  
 1.733985330073350E11   -2.788964968425261E1   1.060191093120697E2  -1.135788286535140E1   1.027211414476215E2  -1.141747814332159E1   7.371996984222456E1  -2.605483948794585E1  -9.903069882304121E1  
 1.734107579462103E11   -2.574210470571675E1   7.747931171126339E1  -1.140858439111574E1   5.440572689338598E1  -1.140796837474998E1   2.523288242560327E1  -3.752102872159181E1   1.731216727225627E2  
 1.734229828850856E11   -2.521030050656708E1   4.234612030644924E1  -1.175697877333686E1   6.637235846711715  -1.175714620804566E1  -2.271527518286267E1  -3.049928341249814E1   2.055998789274450E1  
 1.734352078239609E11   -3.235550406392792E1   1.277557908874766E1  -1.191999610454672E1  -3.839335566493861E1  -1.200020238364624E1  -6.688069287708146E1  -2.701876187800162E1  -3.695971520520142E1  
 1.734474327628362E11   -2.980905833477921E1   8.105663528153404E1  -1.160695561079693E1  -8.373081129657246E1  -1.162027849086275E1  -1.128472064233420E2  -3.039157827061502E1  -9.065981995671164E1  
 1.734596577017115E11   -2.468714701742627E1   5.600234012898122E1  -1.147160128545333E1  -1.327721269945529E2  -1.147671688800293E1  -1.618005163792931E2  -3.877982485416512E1   1.198878602141981E2  
 1.734718826405868E11   -2.305570128125764E1   2.404898383031693E1  -1.159653061717189E1  -1.798237276915721E2  -1.167432258218561E1   1.504282405222021E2  -2.767195226915802E1   3.192002757936271E1  
 1.734841075794621E11   -2.658674194396876E1  -2.149858090567452  -1.147625202379373E1   1.340808122184100E2  -1.155655278805026E1   1.047576972967097E2  -2.643193035208936E1  -5.637085646224822  
 1.734963325183374E11   -2.785623517339598E1  -1.673232339981208  -1.126128866092520E1   8.604651362026419E1  -1.125235152081284E1   5.630772426865904E1  -2.739093158588259E1  -1.068210917649519E1  
 1.735085574572127E11   -2.851134326704094E1  -8.774654051067133  -1.127427677744991E1   3.636261980380068E1  -1.134340594292966E1   6.325334010443213  -2.495905060524649E1  -1.078053694211232E1  
 1.735207823960880E11   -2.878788407788436E1  -3.454482040386478E1  -1.173037902530481E1  -1.119403087911501E1  -1.175616913387375E1  -4.067011376921876E1  -2.268432318189604E1  -2.565744758322066E1  
 1.735330073349633E11   -3.352454834262461E1  -1.003844787125318E2  -1.185551792858384E1  -5.572245808863087E1  -1.183821050124677E1  -8.615796196714757E1  -2.286241667837816E1  -5.131112542732057E1  
 1.735452322738386E11   -3.582093084228613E1   1.082496993261868E2  -1.162560322557633E1  -1.024858486215113E2  -1.164199497113251E1  -1.331092932934703E2  -2.610970829205543E1  -5.640446661262226E1  
 1.735574572127139E11   -3.017692070286501E1   4.941739842367260E1  -1.161278461400051E1  -1.497756917487285E2  -1.159544437718421E1   1.791101184428606E2  -2.536474515059193E1  -4.024671142878842E1  
 1.735696821515892E11   -3.780954987206026E1  -5.251891231736297  -1.151964476172867E1   1.641563062940387E2  -1.160733022383692E1   1.330520514324673E2  -2.243828518684221E1  -5.781691067209522E1  
 1.735819070904645E11   -3.152220992708854E1   1.150003999722651E2  -1.122136089133285E1   1.165831105255656E2  -1.124498708742508E1   8.522091615777320E1  -2.353936145486241E1  -8.667132735346731E1  
 1.735941320293398E11   -2.607420891443917E1   8.255603256623232E1  -1.113836224543583E1   6.721663344373161E1  -1.112379877511473E1   3.591441829312475E1  -2.960946028008420E1  -1.008688952657148E2  
 1.736063569682152E11   -2.408131743040953E1   5.302675528881792E1  -1.137750463140374E1   1.907859332415653E1  -1.135512121994987E1  -1.279502173042520E1  -2.957130215660445E1  -3.444733918108690E1  
 1.736185819070905E11   -2.567520925830420E1   4.074183108395200E1  -1.142987139673380E1  -2.676646686815857E1  -1.143827368025809E1  -5.879624074522421E1  -2.407167858531391E1  -5.554309974313494E1  
 1.736308068459658E11   -2.425403939512485E1   5.161602739822754E1  -1.128353418704560E1  -7.469993725719536E1  -1.130248730114579E1  -1.071110094263467E2  -2.456949384810348E1  -8.216107203238695E1  
 1.736430317848411E11   -2.083543504806368E1   3.935450665852722E1  -1.129110396692668E1  -1.233582912157947E2  -1.135080661610843E1  -1.555931983574796E2  -2.952987749743404E1  -1.088569881724570E2  
 1.736552567237164E11   -1.997245805565128E1   1.531102918721141E1  -1.158070847658410E1  -1.707723043789001E2  -1.159562263860836E1   1.565106417500123E2  -3.332969484499604E1  -2.654063097413446E1  
 1.736674816625917E11   -2.089313869836497E1  -6.019040108514471  -1.164594510942541E1   1.436788007567938E2  -1.162552239880243E1   1.110630250842300E2  -2.592735932434535E1  -4.094056069589666E1  
 1.736797066014670E11   -2.294748859727018E1  -6.343533585687613  -1.137483212224155E1   9.671948920097296E1  -1.141480457540495E1   6.359489254067827E1  -2.631893626017898E1  -5.437729226123980E1  
 1.736919315403423E11   -2.208206979166738E1  -6.075890189332757  -1.146161964641720E1   4.733199996685708E1  -1.145533498951662E1   1.451135457064276E1  -2.615650339056570E1  -4.341120434145441E1  
 1.737041564792176E11   -2.162807529740279E1  -2.230659371770825E1  -1.164091604021201E1   7.491739292341682E-1  -1.173843219452664E1  -3.197598932865932E1  -2.220565946998172E1  -4.318603993096871E1  
 1.737163814180929E11   -2.455480012362957E1  -3.415158079827539E1  -1.149466535153578E1  -4.497310433190420E1  -1.163330963451281E1  -7.812280067325118E1  -2.095968679052110E1  -7.036301100556615E1  
 1.737286063569682E11   -2.492364251386912E1  -1.702058970764305E1  -1.136700255175154E1  -9.366167704419705E1  -1.139200411516090E1  -1.273780612128326E2  -2.241727913639059E1  -8.727184322480122E1  
 1.737408312958435E11   -2.190121371592106E1  -2.076324872079630E1  -1.154379688507108E1  -1.422473481364286E2  -1.165469084966375E1  -1.756996604128753E2  -2.405164941574270E1  -8.404589859842263E1  
 1.737530562347188E11   -2.105924994600268E1  -5.082828215350885E1  -1.182436104426141E1   1.724175983067563E2  -1.188386780425309E1   1.382819813306179E2  -2.178138821639917E1  -8.781194492538337E1  
 1.737652811735941E11   -2.536947931701297E1  -7.770533209344860E1  -1.159669579642590E1   1.254380901842005E2  -1.165283457010981E1   9.194610655067834E1  -2.219360439187415E1  -1.171991718139014E2  
 1.737775061124694E11   -3.071826812137513E1  -6.520192281266661E1  -1.151390705418213E1   7.697790278912032E1  -1.158896599813769E1   4.342351641807741E1  -2.835346224909983E1  -1.385725013670645E2  
 1.737897310513447E11   -2.744450143071403E1  -4.221643298123421E1  -1.178404651547833E1   2.926398999154150E1  -1.186331636258420E1  -4.498477342476072  -3.032499652438839E1  -5.962701647243947E1  
 1.738019559902200E11   -2.985857129925334E1  -7.829030068222515E1  -1.184976630656321E1  -1.614287669972334E1  -1.190232532737560E1  -5.019672123590222E1  -2.280213279067323E1  -7.871772828464405E1  
 1.738141809290953E11   -3.916794763660167E1   8.302452435101864E1  -1.154395379849145E1  -6.342366859898054E1  -1.158808407010360E1  -9.729588462982177E1  -2.249015819275265E1  -1.167178564622785E2  
 1.738264058679706E11   -2.490042293035153E1   2.962310740702335E1  -1.155845306629950E1  -1.119648810665775E2  -1.157948124533923E1  -1.465791686717932E2  -2.701044037361567E1  -1.500258707647017E2  
 1.738386308068460E11   -2.087762974046342E1  -7.454967494422403  -1.186316275846569E1  -1.589804518879103E2  -1.190843555499520E1   1.662242463782879E2  -3.899366519824761E1  -8.298843519693692E1  
 1.738508557457213E11   -2.173606999885982E1  -3.920317853855577E1  -1.173862190365204E1   1.553617024089529E2  -1.180040699734743E1   1.212189697048335E2  -2.883031922577658E1  -8.188058554897891E1  
 1.738630806845966E11   -2.471051895235239E1  -5.139180034473659E1  -1.156741315187590E1   1.075604676339606E2  -1.157141350081752E1   7.354544396880208E1  -3.174093226800544E1  -9.360810670163642E1  
 1.738753056234719E11   -2.588447050299122E1  -3.872024859483834E1  -1.160610596682103E1   5.887419537382932E1  -1.160479996945987E1   2.412066772265431E1  -2.982558711255269E1  -3.439726971363903E1  
 1.738875305623472E11   -2.326328431758029E1  -4.288478874738024E1  -1.188370302249621E1   1.183799872081597E1  -1.191334077692584E1  -2.261256351789720E1  -2.171157287658897E1  -4.929359104001112E1  
 1.738997555012225E11   -2.529932192139747E1  -6.064463823204664E1  -1.178889827601092E1  -3.360867350197585E1  -1.179762256446156E1  -6.733896172515391E1  -1.930257216419707E1  -8.325072183222518E1  
 1.739119804400978E11   -2.658795658416330E1  -3.515112157564906E1  -1.163225519765586E1  -8.223889368320283E1  -1.161176456757280E1  -1.157544468341687E2  -2.003355842066388E1  -1.123613648712030E2  
 1.739242053789731E11   -2.133682248025241E1  -3.538345123886570E1  -1.177417280934822E1  -1.302895792828836E2  -1.175487858504487E1  -1.644069219324295E2  -2.280120695585542E1  -1.268208660987773E2  
 1.739364303178484E11   -1.869230307679343E1  -6.894877682487673E1  -1.189267427693127E1  -1.763001096597861E2  -1.194890170637309E1   1.502483567335855E2  -2.308052162720205E1  -1.225282132578333E2  
 1.739486552567237E11   -1.934544146248267E1  -1.068992415232682E2  -1.167892391962321E1   1.367240928989577E2  -1.173530054255860E1   1.038866577008834E2  -2.123677170706877E1  -1.458919164281618E2  
 1.739608801955990E11   -2.331795628068861E1  -1.479365854465034E2  -1.170313420210727E1   8.921570458585141E1  -1.167062158606830E1   5.553705766566683E1  -2.302190359268557E1   1.704632656125514E2  
 1.739731051344743E11   -3.401724835259927E1   1.758223683391794E2  -1.182109636064198E1   4.242342315990231E1  -1.184424759360420E1   8.384457361214038  -2.888539154557630E1   9.963626512462994E1  
 1.739853300733496E11   -3.954100759278379E1  -1.579042101074138E2  -1.154501158717734E1  -3.704166946250009  -1.155947343234516E1  -3.662708066039340E1  -2.949197969549037E1  -2.859566260430380E1  
 1.739975550122250E11   -3.424462652977737E1   9.498480423284032E1  -1.129332670789619E1  -5.210784053095342E1  -1.134670789971876E1  -8.550619215147917E1  -2.675407945318077E1  -8.589863292419108E1  
 1.740097799511003E11   -2.549827279007528E1   3.665626642907510E1  -1.130418480274966E1  -1.012455746667169E2  -1.132399878359020E1  -1.342979231309074E2  -2.708730222155741E1  -1.258260960355943E2  
 1.740220048899756E11   -2.164462146591239E1  -4.793919155954156  -1.154619681041890E1  -1.489749008211736E2  -1.155992553666938E1   1.782034159581632E2  -3.516673171185985E1  -1.521999752297477E2  
 1.740342298288509E11   -2.101144976290502E1  -4.313007959446889E1  -1.152282413258943E1   1.652154249597502E2  -1.157256617748494E1   1.325905862931518E2  -3.570630799295383E1  -9.409245430324647E1  
 1.740464547677262E11   -2.287677489727262E1  -6.775483338053329E1  -1.139667578452529E1   1.177272440853737E2  -1.139336864674903E1   8.517388578547759E1  -3.375064135660810E1  -1.165028494781029E2  
 1.740586797066015E11   -2.549104586055463E1  -7.167980720591045E1  -1.131860310547624E1   6.954299154208701E1  -1.154207376565039E1   3.664265682259965E1  -4.125272424504065E1  -7.647387783185347E1  
 1.740709046454768E11   -2.507658728094769E1  -6.850186559512129E1  -1.155456695611422E1   2.222970458902789E1  -1.161560932637112E1  -9.687212487504182  -2.900292497278773E1  -4.349906759719914E1  
 1.740831295843521E11   -2.469731142877838E1  -9.019083170128877E1  -1.137578436518696E1  -2.380357588652630E1  -1.139823783989180E1  -5.589773554990185E1  -2.515790167922699E1  -8.217767555989578E1  
 1.740953545232274E11   -2.829998187759520E1  -1.041608665134693E2  -1.116424147295465E1  -7.200517491004905E1  -1.122884664084099E1  -1.039269170382554E2  -2.626395165234921E1  -1.145675045431365E2  
 1.741075794621027E11   -3.120979348700273E1  -7.536489605497845E1  -1.119437173254357E1  -1.202373232486272E2  -1.126613354102195E1  -1.527007447508107E2  -3.059389522991040E1  -1.062259526840042E2  
 1.741198044009780E11   -2.689139664946602E1  -7.552615744813699E1  -1.126210338351430E1  -1.676224786850179E2  -1.133925290451176E1   1.607634752727459E2  -2.616373718582114E1  -9.181889038838004E1  
 1.741320293398533E11   -2.792281491367751E1  -1.075286684651852E2  -1.112718210083346E1   1.448476780033907E2  -1.117005141700222E1   1.132072618939985E2  -2.331614984516630E1  -1.205800341929633E2  
 1.741442542787286E11   -4.179887239053068E1  -1.097507964866106E2  -1.112700113625983E1   9.583336121951768E1  -1.111798949622837E1   6.451612161862782E1  -2.381296340813707E1  -1.566615488761279E2  
 1.741564792176039E11   -2.898169141041083E1  -1.796123087465623E1  -1.125903415573853E1   4.887301963098598E1  -1.124865406630451E1   1.702547741229537E1  -2.700718705910261E1   1.663999707031809E2  
 1.741687041564792E11   -2.425120173116555E1  -5.209401076561457E1  -1.121699162219348E1   1.631431742215948  -1.130591214340463E1  -2.907415447029273E1  -3.344715905973067E1   1.483702905530392E2  
 1.741809290953545E11   -2.453475400623352E1  -7.490258791652970E1  -1.111400206855578E1  -4.726070305356532E1  -1.108163611736128E1  -7.774029070710319E1  -3.515940508156847E1   1.292975589928964E2  
 1.741931540342298E11   -2.566655765077386E1  -7.693396034636280E1  -1.118864726953611E1  -9.611372310360322E1  -1.126547333666215E1  -1.268392809927044E2  -3.566720888116712E1   5.510157484827480E1  
 1.742053789731051E11   -2.371294385082739E1  -7.739061884182056E1  -1.153929983137911E1  -1.433754446746771E2  -1.157655699203094E1  -1.735228531960653E2  -3.110085047221565E1  -8.632511222575834  
 1.742176039119804E11   -2.190551274816169E1  -1.037445417185319E2  -1.157373270934219E1   1.707121297724373E2  -1.160583852459636E1   1.403983273754822E2  -2.698280229638848E1  -8.221124632395728E1  
 1.742298288508557E11   -2.404547938972315E1  -1.402490171805752E2  -1.152854896081566E1   1.230267488764840E2  -1.154322134900049E1   9.356114332700751E1  -2.552452466362221E1  -1.452315985383297E2  
 1.742420537897311E11   -3.163600065131678E1   1.787323761158192E2  -1.155611517703944E1   7.534284397255743E1  -1.157030253149145E1   4.565936790312051E1  -2.617545176126789E1   1.509079888226930E2  
 1.742542787286064E11   -3.417536957428455E1  -4.445968127558714E1  -1.164819981394722E1   2.925409695872090E1  -1.170400466455931E1  -7.479790538689508E-1  -2.875508254498303E1   9.004517905795228E1  
 1.742665036674817E11   -2.801806510939273E1  -7.931115634007990E1  -1.151579599735711E1  -1.765178982770204E1  -1.152225421324773E1  -4.714267858202053E1  -3.355540920749797E1   5.426428835349600E1  
 1.742787286063570E11   -2.752449370554550E1  -1.077749912500691E2  -1.138044632277254E1  -6.620465441642830E1  -1.145708562502956E1  -9.602023774688321E1  -3.063510044815943E1   6.760553433845259E1  
 1.742909535452323E11   -3.202059990681673E1  -1.229218245228031E2  -1.162597013097284E1  -1.140660530386926E2  -1.163147550350643E1  -1.439254440550639E2  -2.429458696832167E1   3.970074832385021E1  
 1.743031784841076E11   -3.115029654293894E1  -8.800796637074335E1  -1.176522958893654E1  -1.598236512276870E2  -1.171907634736884E1   1.705508638080856E2  -2.196700614013891E1  -5.613311871070414  
 1.743154034229829E11   -3.031876873815986E1  -1.073420100238617E2  -1.149918108729208E1   1.529971987583105E2  -1.152633220618099E1   1.239773866954142E2  -2.276001761918341E1  -4.279024483365635E1  
 1.743276283618582E11   -3.453479499991898E1  -1.063684981675839E2  -1.146787571345221E1   1.047173989697124E2  -1.140174904869294E1   7.519435240908160E1  -2.676488002073420E1  -6.597141042232688E1  
 1.743398533007335E11   -2.979503524065048E1  -6.173914967156854E1  -1.155132645873085E1   5.728723168526829E1  -1.154831971319321E1   2.750673493219089E1  -2.900843046686554E1  -4.972460328376953E1  
 1.743520782396088E11   -2.535852534738443E1  -9.103581525296914E1  -1.158805192963902E1   1.015816377354178E1  -1.156311752547082E1  -1.886792636471340E1  -2.482973419533401E1  -5.928713329999688E1  
 1.743643031784841E11   -2.641546236470010E1  -1.188551652214110E2  -1.152030923994808E1  -3.646204779471098E1  -1.147886574961211E1  -6.694047770279259E1  -2.491348929052450E1  -9.752767396385895E1  
 1.743765281173594E11   -3.350131868444653E1  -1.376627148462432E2  -1.154673472062661E1  -8.461612853282016E1  -1.159625005936798E1  -1.145480448561561E2  -2.866767941180504E1  -1.486538805091575E2  
 1.743887530562347E11   -3.036767936397774E1  -5.358372212989323E1  -1.172417014796472E1  -1.310646812914035E2  -1.178073332559828E1  -1.607301725166769E2  -3.599042150076222E1   9.794443324836104E1  
 1.744009779951100E11   -2.385022078328776E1  -8.774008682545622E1  -1.157500086123601E1  -1.774168406031714E2  -1.163833493138890E1   1.535269857918243E2  -3.276686421455439E1  -8.991177920686674E-1  
 1.744132029339853E11   -2.322399666315282E1  -1.182431576053405E2  -1.149270814324444E1   1.353589596762322E2  -1.147343281441908E1   1.053123243244868E2  -3.757567837920323E1  -3.420048169931842E1  
 1.744254278728606E11   -2.454729008129067E1  -1.452216712279698E2  -1.150361847416361E1   8.791640375095268E1  -1.153871276881153E1   5.767852396855089E1  -3.468633445892296E1   3.792276836633081E1  
 1.744376528117359E11   -2.713400019055329E1  -1.584951417433576E2  -1.140243215126706E1   4.175710135710960E1  -1.143483583013070E1   1.110451225423253E1  -2.794848290976081E1   1.503715404248808E1  
 1.744498777506112E11   -2.865900161513648E1  -1.655901549465640E2  -1.121443297255590E1  -6.312784337194858  -1.114768317194266E1  -3.682326046047480E1  -2.648197166176798E1  -5.154645050083055  
 1.744621026894865E11   -3.000376253711655E1   1.784674506722026E2  -1.106701740726887E1  -5.594299271155557E1  -1.111434758150654E1  -8.562187360855005E1  -2.724783675223324E1  -9.658908545111631  
 1.744743276283619E11   -3.556090960650046E1   1.635531093791776E2  -1.132390974684322E1  -1.038820242834347E2  -1.127684573554929E1  -1.341461171618051E2  -2.497328493644456E1   2.728880389631599  
 1.744865525672372E11   -3.433931389468336E1  -1.545830180991651E2  -1.141727956574287E1  -1.497743751812097E2  -1.140119487691260E1   1.795268897683228E2  -2.098578612035385E1  -1.690509352890056E1  
 1.744987775061125E11   -2.923954323693985E1   1.648738363480060E2  -1.120891081924797E1   1.631922568822647E2  -1.123723201218943E1   1.324212370487703E2  -2.085801587423054E1  -4.290149823493802E1  
 1.745110024449878E11   -2.770854527834835E1   1.092344710828520E2  -1.124982496526958E1   1.146705865890669E2  -1.126910851642241E1   8.356779134771615E1  -2.286893619565336E1  -5.885536556040498E1  
 1.745232273838631E11   -2.696216717400597E1   4.555802809109002E1  -1.143954316686285E1   6.830006630910862E1  -1.142777582243839E1   3.706858628867625E1  -2.442717723870828E1  -4.917304784561848E1  
 1.745354523227384E11   -2.678392814130354E1  -1.568335194973838E1  -1.130057430740229E1   2.193136567654978E1  -1.134539506658653E1  -9.512463334457038  -2.224896807497473E1  -5.558808105709458E1  
 1.745476772616137E11   -3.148320598771154E1  -3.612045607061143E1  -1.107506091308926E1  -2.647173943568321E1  -1.111246184377690E1  -5.812063460006849E1  -2.331455846055693E1  -7.191075829645426E1  
 1.745599022004890E11   -3.007820449786838E1  -1.392816585613624E1  -1.124838767658182E1  -7.451751413244277E1  -1.125411972789425E1  -1.073055181290408E2  -2.661218743623436E1  -7.193604610740704E1  
 1.745721271393643E11   -2.398847021201469E1  -3.190791716846922E1  -1.144317796287987E1  -1.212564561538044E2  -1.139844261958945E1  -1.540659548212626E2  -2.501268433654071E1  -5.096878972626474E1  
 1.745843520782396E11   -2.242868644338235E1  -6.487462276454575E1  -1.126279369149579E1  -1.678481365358072E2  -1.129683937440357E1   1.591478451280819E2  -2.275039350127181E1  -6.874203149844557E1  
 1.745965770171149E11   -2.437571531065304E1  -9.646080213527816E1  -1.131503152982363E1   1.436823372789767E2  -1.124184475617758E1   1.105583485337280E2  -2.402071047257281E1  -9.111924388710138E1  
 1.746088019559902E11   -2.815580851725651E1  -8.720090108199250E1  -1.143804133746718E1   9.613505911799450E1  -1.142537219642032E1   6.183687357784382E1  -3.082810505579900E1  -8.473366429472495E1  
 1.746210268948655E11   -2.417173321817908E1  -7.787839547371118E1  -1.148471787454261E1   5.032780705552124E1  -1.158279726825553E1   1.591444657492055E1  -2.651280855555778E1  -4.001885626921212E1  
 1.746332518337408E11   -2.196262617655444E1  -1.049330388840050E2  -1.132020639635786E1   2.395341492018064  -1.133452448997588E1  -3.138794594931908E1  -2.344409724777717E1  -5.950945644347076E1  
 1.746454767726162E11   -2.307235757000334E1  -1.343222855838770E2  -1.141155238271992E1  -4.592603430547805E1  -1.146254993492099E1  -8.003618722016256E1  -2.510765511459954E1  -7.923903840361463E1  
 1.746577017114915E11   -2.788442602780732E1  -1.464775285118843E2  -1.171385561299210E1  -9.358041847715310E1  -1.173755395210170E1  -1.271593527774258E2  -2.902485028542414E1  -5.234212562321954E1  
 1.746699266503668E11   -2.726006252173447E1  -1.161541920260494E2  -1.164615585793601E1  -1.383084618723079E2  -1.164960312087397E1  -1.717029913789815E2  -2.362491636117883E1  -4.510522519011175E1  
 1.746821515892421E11   -2.432383915349435E1  -1.364565258395830E2  -1.143487713642238E1   1.746271260646198E2  -1.146346845825708E1   1.408219713556558E2  -2.243428856636376E1  -6.246931996496897E1  
 1.746943765281174E11   -2.486065438968090E1  -1.631958951612027E2  -1.144242356767742E1   1.264212529152581E2  -1.142833563204690E1   9.248667754121060E1  -2.301731596626298E1  -6.649561642923352E1  
 1.747066014669927E11   -3.225555582423920E1   1.731711057789813E2  -1.156911323078513E1   7.923536900140412E1  -1.156703349074692E1   4.520326954888264E1  -2.153999703449843E1  -6.046656454360985E1  
 1.747188264058680E11   -3.125565222772723E1  -1.075719246954684E2  -1.143282554229822E1   3.235744436646723E1  -1.142306028632405E1  -1.713064416973305  -1.911306342003906E1  -7.713223048144634E1  
 1.747310513447433E11   -2.744760802021662E1  -1.294487494177493E2  -1.136476731547752E1  -1.524836023999392E1  -1.134059966772661E1  -4.969095853631718E1  -1.938289967327229E1  -1.028754974008235E2  
 1.747432762836186E11   -2.678029363503875E1  -1.551478176675958E2  -1.141167115890326E1  -6.347152954670224E1  -1.141295083047934E1  -9.735910388279120E1  -2.275499221526490E1  -1.223839897838402E2  
 1.747555012224939E11   -3.001474295045328E1  -1.602123160178242E2  -1.145756686041735E1  -1.100867446295738E2  -1.138505555628816E1  -1.441041740292031E2  -2.731843525921023E1  -1.013118271270208E2  
 1.747677261613692E11   -2.716805993569483E1  -1.531805065649271E2  -1.120118247807325E1  -1.567117304943081E2  -1.133244676989491E1   1.685297777686049E2  -2.407052185389328E1  -9.048028107646081E1  
 1.747799511002445E11   -2.575039172161162E1   1.713218255222904E2  -1.121889243883539E1   1.545394559711544E2  -1.125017624728108E1   1.199987036139541E2  -2.268074997317171E1  -1.058395958700856E2  
 1.747921760391198E11   -2.625620595643271E1   1.124262600377883E2  -1.137598903149278E1   1.070542422423934E2  -1.141110909478289E1   7.286400700477815E1  -2.519281947578802E1  -1.248745709815301E2  
 1.748044009779951E11   -2.684845658919966E1   1.770082530756729E1  -1.129959693946879E1   6.039559584860107E1  -1.135373070361184E1   2.648413696068425E1  -2.771810514035400E1  -1.151556072038690E2  
 1.748166259168704E11   -2.516171378608536E1  -5.246596838213169E1  -1.125304465063036E1   1.256128945204931E1  -1.124267064569908E1  -2.132795197945118E1  -2.719695168379858E1  -1.211318569103038E2  
 1.748288508557457E11   -2.402696120387094E1  -9.830780578886771E1  -1.129808128886701E1  -3.587929005568084E1  -1.123825378632399E1  -6.991378622003849E1  -3.058278164120957E1  -1.491746849905063E2  
 1.748410757946210E11   -2.603008051305151E1  -1.224988435142345E2  -1.145754680879178E1  -8.274120559663281E1  -1.151100230875157E1  -1.172258619566356E2  -3.726641922144817E1   4.942631621089735E1  
 1.748533007334963E11   -2.572324697777091E1  -1.180618858974835E2  -1.147304166653403E1  -1.292865707454193E2  -1.145899128761812E1  -1.631676375767872E2  -2.461094061752678E1  -1.929957897803265E1  
 1.748655256723716E11   -2.345455236364536E1  -1.321140462003655E2  -1.130595914200314E1  -1.769125286237843E2  -1.131033979996878E1   1.501894799607670E2  -2.172929895395089E1  -6.084484443186740E1  
 1.748777506112470E11   -2.308527404586278E1  -1.549318867133995E2  -1.126870317911552E1   1.353101577518430E2  -1.130348377547183E1   1.020494329794602E2  -2.294852694046755E1  -8.892595265734033E1  
 1.748899755501223E11   -2.581898499936758E1  -1.732024554103334E2  -1.137442293691787E1   8.786657892283557E1  -1.135259053212036E1   5.517010098783334E1  -2.700959324188125E1  -8.804347452784644E1  
 1.749022004889976E11   -2.710372046837646E1  -1.577604065753364E2  -1.118270646515042E1   4.113690190657730E1  -1.121890390729080E1   8.341420618878299  -2.470019073612392E1  -7.256803325505132E1  
 1.749144254278729E11   -2.391477200041253E1  -1.618761485763338E2  -1.110538899777910E1  -7.758915614506055  -1.114870919694450E1  -4.005836190505634E1  -2.324856908040385E1  -8.460418848262830E1  
 1.749266503667482E11   -2.433103385626616E1   1.753429051365793E2  -1.129062176360484E1  -5.568667969391816E1  -1.129056676588447E1  -8.815995564152014E1  -2.614002745585484E1  -9.800325085911109E1  
 1.749388753056235E11   -2.941281335678783E1   1.612765479927095E2  -1.143341342105439E1  -1.030233657398046E2  -1.138335521132098E1  -1.341083129860992E2  -2.635792805536168E1  -6.111357017895832E1  
 1.749511002444988E11   -2.687300380706848E1  -1.530787546627206E2  -1.127030453125729E1  -1.500389891356550E2  -1.119215682864789E1   1.785510289508755E2  -2.101105476192094E1  -7.231264462067142E1  
 1.749633251833741E11   -2.172096318028878E1  -1.703020815102312E2  -1.127067161668697E1   1.616141302343608E2  -1.121420478910639E1   1.303453635071567E2  -1.974070398463785E1  -9.601621670196482E1  
 1.749755501222494E11   -2.101464700088318E1   1.547628146463705E2  -1.139691109546815E1   1.132264328479313E2  -1.139637534010189E1   8.306415218301312E1  -2.148931259540563E1  -1.189260330928710E2  
 1.749877750611247E11   -2.442489041298243E1   1.268665817943534E2  -1.143445673909777E1   6.752684085234452E1  -1.144680466669122E1   3.793999687600148E1  -2.439609631494415E1  -1.162159123955481E2  
 1.750000000000000E11   -2.883061099372427E1   1.417266257694633E2  -1.120758057225704E1   1.972170111666629E1  -1.118602597351336E1  -1.036220738286870E1  -2.403309778996155E1  -1.177030675781485E2  
