# GHz S RI R 50
! S-Parameters data
! Freq   reS11   imS11   reS21   imS21   reS12   imS12   reS22   imS22
1.1000000000000000000000000e+02 3.3849696932005601812676332e-01 2.2965459599706306015320934e-01 4.1624637529767954946535724e-01 5.9664075491558266062241955e-01 4.1624637529767949395420601e-01 5.9664075491558254960011709e-01 -1.4922258129667612114310771e-01 -2.3271194332857100817157914e-01
1.1015000000000000568434189e+02 3.5762032034958091131215951e-01 2.1944186701336365619141588e-01 4.1886713908135814188327117e-01 5.7290539947259766506704182e-01 4.1886713908135814188327117e-01 5.7290539947259766506704182e-01 -1.7355041365456380653142787e-01 -2.2766785662173302795530105e-01
1.1029999999999999715782906e+02 3.6552520324252402161846476e-01 2.4401346021872821756559802e-01 4.8649329771583738057927349e-01 5.4326800019898169313847802e-01 4.8649329771583721404581979e-01 5.4326800019898158211617556e-01 -2.2065213080372053644495622e-01 -1.4363937672870691342197347e-01
1.1045000000000000284217094e+02 3.7912520588553455525016034e-01 2.2574547057386235016096521e-01 5.2038423506439845933613242e-01 5.1177188726663924711601794e-01 5.2038423506439868138073734e-01 5.1177188726663924711601794e-01 -2.2693314865081598563634202e-01 -1.1634918089256537920839207e-01
1.1059999999999999431565811e+02 3.9418250133426263603908524e-01 2.0403174804584234269810850e-01 5.5493068814823809375980090e-01 4.9252170936589906302671693e-01 5.5493068814823820478210337e-01 4.9252170936589922956017062e-01 -2.5117030051969674309120251e-01 -5.7767751298386488256753069e-02
1.1075000000000000000000000e+02 3.9482926869320256191286944e-01 2.0881049926294883989363882e-01 5.9011313473287618780460662e-01 4.3836961676927765907407775e-01 5.9011313473287596576000169e-01 4.3836961676927754805177528e-01 -2.4881574039072973381081511e-01 -4.4730641880631236140253293e-02
1.1090000000000000568434189e+02 3.8394669436526934758191487e-01 2.1222365304225518367609027e-01 6.0984572860911590019838968e-01 4.2169478333474202935704511e-01 6.0984572860911601122069214e-01 4.2169478333474219589049881e-01 -2.5737145016224516336222905e-01 -2.2819285400493966031731929e-03
1.1104999999999999715782906e+02 3.7982972611238530191712925e-01 2.0063021426509761169221235e-01 6.3236383258210993041359416e-01 3.8022223578414882094733684e-01 6.3236383258210959734668677e-01 3.8022223578414859890273192e-01 -2.7014007440107884461255594e-01 2.8900011769992531296402660e-02
1.1120000000000000284217094e+02 3.7791280428914081346292164e-01 1.9485702056538875548419298e-01 6.4264124728182514534324810e-01 3.4156611410492904168378914e-01 6.4264124728182492329864317e-01 3.4156611410492893066148667e-01 -2.8678365713227016442488093e-01 6.5381440934591306124445964e-02
1.1134999999999999431565811e+02 3.6549064984681883805350822e-01 1.9179431013171216457990909e-01 6.6893416626568247274065016e-01 2.9953028145854793118374459e-01 6.6893416626568247274065016e-01 2.9953028145854782016144213e-01 -2.7620164589392193210670712e-01 9.4182811527285678621090881e-02
1.1150000000000000000000000e+02 3.4686441091200997943744255e-01 1.9213846160463995960121508e-01 6.9475400121961539134929353e-01 2.6143167851983539762272812e-01 6.9475400121961561339389846e-01 2.6143167851983528660042566e-01 -2.5880809086162914756101827e-01 1.2449137611433265526716951e-01
1.1165000000000000568434189e+02 3.5174634503455654011006004e-01 1.9411795121152669585384842e-01 7.1428042509964595474514226e-01 2.1776892125357694141030152e-01 7.1428042509964606576744472e-01 2.1776892125357708018817959e-01 -2.5476947100419494729450776e-01 1.5250539736189500095164817e-01
1.1179999999999999715782906e+02 3.5123607697076147937664814e-01 1.9213371132603637714275635e-01 7.3179982134373411373218232e-01 1.7128596375111204697105904e-01 7.3179982134373489088829956e-01 1.7128596375111235228239082e-01 -2.4250165510382648559328800e-01 1.8287614113468023124831063e-01
1.1195000000000000284217094e+02 3.5396203927484426454697086e-01 1.9006546379617417219520803e-01 7.5442378590251524261844907e-01 1.2449542154932825843705047e-01 7.5442378590251513159614660e-01 1.2449542154932806414802116e-01 -2.1971368792003959091729826e-01 2.0137976215854994088694241e-01
1.1209999999999999431565811e+02 3.4831759497350717191821445e-01 1.8332805608368676897335092e-01 7.6585401960211041405557353e-01 6.8404573211606714555621522e-02 7.6585401960211041405557353e-01 6.8404573211606728433409330e-02 -1.9878306330145048552715537e-01 2.2088330290641544628726933e-01
1.1225000000000000000000000e+02 3.4411018646240332241603710e-01 1.7854863850134847225170631e-01 7.8093342562165535269969041e-01 1.4118745822153602395565564e-02 7.8093342562165513065508549e-01 1.4118745822153425453771014e-02 -1.6987196459247638768985667e-01 2.4236816670104582849276653e-01
1.1240000000000000568434189e+02 3.3533064816856295031755053e-01 1.7910733528618816290389759e-01 7.8425747187520933323412464e-01 -4.3821905024289592445185804e-02 7.8425747187520933323412464e-01 -4.3821905024289856123154152e-02 -1.3886666707447331559066583e-01 2.4606390692051016699792854e-01
1.1254999999999999715782906e+02 3.3077592208140960128304187e-01 1.7826988470263366304280339e-01 7.8523320881725289233088461e-01 -1.0454407138169635738123020e-01 7.8523320881725322539779199e-01 -1.0454407138169644064795705e-01 -1.1099204729686201753580121e-01 2.4502931853234327652657498e-01
1.1270000000000000284217094e+02 3.2385723887505463158831276e-01 1.7857657242009847275987511e-01 7.7721040095732574215503519e-01 -1.6048674134189674922446045e-01 7.7721040095732574215503519e-01 -1.6048674134189677698003607e-01 -8.6542178488148324699835712e-02 2.4729710379290120725315205e-01
1.1284999999999999431565811e+02 3.1686745908190783183044914e-01 1.8100410206248024325148549e-01 7.6703195259755241330879016e-01 -2.1933132985440859097359123e-01 7.6703195259755263535339509e-01 -2.1933132985440870199589369e-01 -5.8749067881101436905399993e-02 2.4472588951779158938926173e-01
1.1300000000000000000000000e+02 3.0998157812296128765794379e-01 1.8854845322571933685651402e-01 7.4815441998544096602330455e-01 -2.7625155773531323566416518e-01 7.4815441998544096602330455e-01 -2.7625155773531323566416518e-01 -2.9196133428578588397961369e-02 2.3586213489372037654945302e-01
1.1315000000000000568434189e+02 3.0601921739597959248868619e-01 1.9794334194638613100281077e-01 7.2524178002748618254713620e-01 -3.3132690349190102585552609e-01 7.2524178002748618254713620e-01 -3.3132690349190102585552609e-01 -2.1350698751550767351403692e-03 2.1934098449629191307508336e-01
1.1329999999999999715782906e+02 3.0574449124383668019433458e-01 2.1071412903750957879012162e-01 6.9834653695898019076793162e-01 -3.8195217053353863745357444e-01 6.9834653695898074587944393e-01 -3.8195217053353880398702813e-01 2.4915722665553710624131156e-02 2.0217930297487957114199730e-01
1.1345000000000000284217094e+02 3.0967233824369100325668569e-01 2.2003273887966662281101549e-01 6.6793187378891250016721415e-01 -4.3052272678485481449683903e-01 6.6793187378891250016721415e-01 -4.3052272678485481449683903e-01 4.8658799627256263398145109e-02 1.7981177643164475421500015e-01
1.1359999999999999431565811e+02 3.2087447675749453113169807e-01 2.2687887973143672226683520e-01 6.3519378388319580608367687e-01 -4.7432766395299580386435423e-01 6.3519378388319580608367687e-01 -4.7432766395299574835320300e-01 7.0500435723015869582397386e-02 1.5002537425468887022361741e-01
1.1375000000000000000000000e+02 3.3066390956398317158004829e-01 2.2757522163579113616549421e-01 6.0027388783594748389305096e-01 -5.1764973584424078811849768e-01 6.0027388783594737287074850e-01 -5.1764973584424089914080014e-01 8.2275384588224864668148939e-02 1.2009371466293818075943278e-01
1.1390000000000000568434189e+02 3.4065173214343363872202985e-01 2.2445604383238548784618160e-01 5.6314836006298341075648750e-01 -5.5758899040034615168792698e-01 5.6314836006298341075648750e-01 -5.5758899040034637373253190e-01 8.9761019364370406292685800e-02 9.1577596373443995170227083e-02
1.1404999999999999715782906e+02 3.4847176448973010698395569e-01 2.2020306584846199848826132e-01 5.2384432614358167334955851e-01 -5.9408915820754659709024281e-01 5.2384432614358178437186098e-01 -5.9408915820754693015715020e-01 9.7338822363371310664170721e-02 6.5916668089024257892738490e-02
1.1420000000000000284217094e+02 3.5663345371126486949009404e-01 2.1075323429660786089812063e-01 4.8402773146599831211034370e-01 -6.2960732393123974848236912e-01 4.8402773146599814557689001e-01 -6.2960732393123952643776420e-01 1.0060951035846513179627948e-01 3.7185148233460932343241723e-02
1.1434999999999999431565811e+02 3.5995823489001543826759644e-01 1.9772484314522978388062313e-01 4.4126381501501360515860028e-01 -6.6517353788434807615459476e-01 4.4126381501501366066975152e-01 -6.6517353788434818717689723e-01 9.8075921535607263335165840e-02 1.3406527683653336746605333e-02
1.1450000000000000000000000e+02 3.5901427726124202077784275e-01 1.8568658173325594540337136e-01 3.9530996476358942759432580e-01 -6.9744051267550910555570454e-01 3.9530996476358959412777949e-01 -6.9744051267550899453340207e-01 9.7813787115908226721394669e-02 -6.0972331770282675589278654e-03
1.1465000000000000568434189e+02 3.5352294908906822801242242e-01 1.7635650034368399730055899e-01 3.4636431713021414990905100e-01 -7.2584802877753606953348253e-01 3.4636431713021414990905100e-01 -7.2584802877753573646657514e-01 1.0033955968395856517272335e-01 -2.5037570473881345933797604e-02
1.1479999999999999715782906e+02 3.4544315517448664909494482e-01 1.7024478090383154960107959e-01 2.9472347648107305451148363e-01 -7.5146922605009369711126510e-01 2.9472347648107311002263486e-01 -7.5146922605009391915587003e-01 1.0022699323390765746566444e-01 -4.3654005355948502509200182e-02
1.1495000000000000284217094e+02 3.3716805494593071745867974e-01 1.6537352635692345592666186e-01 2.3848395761405216664030604e-01 -7.7211626418358170198530388e-01 2.3848395761405244419606220e-01 -7.7211626418358225709681619e-01 1.0045134674316083533973654e-01 -6.2023384679117769813228023e-02
1.1509999999999999431565811e+02 3.2976426803777186824717660e-01 1.6272248974156489076392518e-01 1.8180121412432900807054637e-01 -7.8757697326430298190302892e-01 1.8180121412432884153709267e-01 -7.8757697326430287088072646e-01 9.9163228697577154857611959e-02 -8.0451776042513328812688655e-02
1.1525000000000000000000000e+02 3.2478812879337931596168687e-01 1.6186800072720669563253182e-01 1.2684587343790132418774874e-01 -7.9920055820284174874501559e-01 1.2684587343790126867659751e-01 -7.9920055820284152670041067e-01 9.6776041551820957131724299e-02 -1.0065350950147618214192136e-01
1.1540000000000000568434189e+02 3.2015439632224529376003375e-01 1.6028883639729762933257007e-01 7.0696965941740672056958772e-02 -8.0828831626466091098137667e-01 7.0696965941740727568110003e-02 -8.0828831626466124404828406e-01 8.8810671385072176287067691e-02 -1.2111368291380000816737095e-01
1.1554999999999999715782906e+02 3.1414479158027763805449695e-01 1.5489612952506986998102434e-01 1.1599209550287703507365222e-02 -8.1233128823234335147418506e-01 1.1599209550287755549069502e-02 -8.1233128823234357351878998e-01 7.9012863734752525335380824e-02 -1.3727203437697774179859778e-01
1.1570000000000000284217094e+02 3.0520981460249746453072817e-01 1.5131855927835272113135545e-01 -4.8512909388264663368417473e-02 -8.1102910680020745548546302e-01 -4.8512909388264642551735761e-02 -8.1102910680020767753006794e-01 6.5995184179026708526372147e-02 -1.4867266380551283355693215e-01
1.1584999999999999431565811e+02 2.9705270411958817344810768e-01 1.5139399973672437726968099e-01 -1.0806238976655767325407709e-01 -8.0557189681201379904962323e-01 -1.0806238976655761774292586e-01 -8.0557189681201402109422816e-01 5.1359358655351655675858069e-02 -1.5624763022292367797838608e-01
1.1600000000000000000000000e+02 2.9150643291885935948215547e-01 1.4931363393332727773632485e-01 -1.6709642275608241335227433e-01 -7.9506997524153599776752799e-01 -1.6709642275608227457439625e-01 -7.9506997524153577572292306e-01 3.8179075967203691954754419e-02 -1.6061067178926541343386702e-01
1.1615000000000000568434189e+02 2.8266952399973627185758573e-01 1.4754097251337411345062378e-01 -2.2368932501068897189533402e-01 -7.7831483680734114827259873e-01 -2.2368932501068902740648525e-01 -7.7831483680734103725029627e-01 2.4949417699441235607427103e-02 -1.6424832759579441332498106e-01
1.1629999999999999715782906e+02 2.7283494339499086978051423e-01 1.4600047772489191388878282e-01 -2.7944210356441251397185965e-01 -7.5651750282197127717154217e-01 -2.7944210356441240294955719e-01 -7.5651750282197127717154217e-01 1.1327887367038866339719050e-02 -1.6337132861758943414010048e-01
1.1645000000000000284217094e+02 2.5991387386046571617015388e-01 1.4602217418939084092599501e-01 -3.3284023542929258576705820e-01 -7.3018279990810397439560120e-01 -3.3284023542929291883396559e-01 -7.3018279990810464052941597e-01 -2.5199568948582190541785053e-03 -1.5963484940484434781993173e-01
1.1659999999999999431565811e+02 2.4881331769460529601545318e-01 1.5022165657024638685257401e-01 -3.8183557034776832717071215e-01 -6.9957739430177545703060105e-01 -3.8183557034776810512610723e-01 -6.9957739430177545703060105e-01 -1.5052157667307594635097701e-02 -1.5379349388352525629386491e-01
1.1675000000000000000000000e+02 2.3835596573248984952897445e-01 1.5577534805359474767705308e-01 -4.2679566597204293687539689e-01 -6.6703593903892499650254422e-01 -4.2679566597204299238654812e-01 -6.6703593903892499650254422e-01 -2.7684439623426725096688727e-02 -1.4638018428898041944918873e-01
1.1690000000000000568434189e+02 2.3004921363666769318356842e-01 1.6297737420038255207188627e-01 -4.6807886546170146546685942e-01 -6.3219260750085093381045453e-01 -4.6807886546170129893340572e-01 -6.3219260750085082278815207e-01 -4.1959306687357915410796494e-02 -1.3676442945222663793991558e-01
1.1704999999999999715782906e+02 2.2251400509017291162727759e-01 1.6961556991118167947441009e-01 -5.0607201490262065934899738e-01 -5.9618293286665569041815615e-01 -5.0607201490262088139360230e-01 -5.9618293286665591246276108e-01 -5.2930453462121870855661143e-02 -1.2583443340703187596218982e-01
1.1720000000000000284217094e+02 2.1737527515158031055086951e-01 1.7675829314369834177611551e-01 -5.4301357881226408608199563e-01 -5.5784585711916823136391486e-01 -5.4301357881226386403739070e-01 -5.5784585711916823136391486e-01 -6.7334970877329008986933445e-02 -1.1491471160900235126689495e-01
1.1734999999999999431565811e+02 2.1465335206408542312317422e-01 1.8325347858496532360561559e-01 -5.7631648527606615939333778e-01 -5.1601537869717217787979280e-01 -5.7631648527606627041564025e-01 -5.1601537869717206685749034e-01 -8.2278141177827820995638319e-02 -9.3647115143204312515123888e-02
1.1750000000000000000000000e+02 2.1499306882305790900034026e-01 1.8866658780175571408221913e-01 -6.0626219741373954530416768e-01 -4.7402347084491147644058628e-01 -6.0626219741373932325956275e-01 -4.7402347084491119888483013e-01 -9.6689205977718656326302948e-02 -7.1473372328165488132079020e-02
1.1765000000000000568434189e+02 2.1848202095281979429053365e-01 1.8847529932269224683949460e-01 -6.3294807053790314022023722e-01 -4.3234073379442899964786307e-01 -6.3294807053790325124253968e-01 -4.3234073379442911067016553e-01 -1.0792199584196787709444720e-01 -3.3913195371590265647654405e-02
1.1779999999999999715782906e+02 2.1592354555941747906722128e-01 1.7960856227008550889401306e-01 -6.5766365257017433965103237e-01 -3.8916658630248313066601895e-01 -6.5766365257017445067333483e-01 -3.8916658630248329719947264e-01 -9.7117630412433125774995801e-02 1.1567196804291857148427880e-03
1.1795000000000000284217094e+02 2.0356224849497406292897494e-01 1.7578599436433006708568882e-01 -6.8058908029192821675934510e-01 -3.4253907401425881529277717e-01 -6.8058908029192810573704264e-01 -3.4253907401425881529277717e-01 -8.1279987614427479103440533e-02 1.9521582267789664572044117e-02
1.1809999999999999431565811e+02 1.9166378636822065106848356e-01 1.7504654222214649506028650e-01 -6.9871819048445493738341838e-01 -2.9450426221168779505887869e-01 -6.9871819048445482636111592e-01 -2.9450426221168762852542500e-01 -7.2822431954110408702796065e-02 3.5241825948839913817955960e-02
1.1825000000000000000000000e+02 1.7965558445332460713039779e-01 1.7690352619093366315361493e-01 -7.1474056217370907084784903e-01 -2.4721367645212247166064401e-01 -7.1474056217370951493705888e-01 -2.4721367645212266594967332e-01 -6.0712075577096250023068080e-02 5.1567495605464100383308335e-02
1.1840000000000000568434189e+02 1.7048534532615244874165228e-01 1.8055064238493412354102929e-01 -7.2787322416840760652689823e-01 -1.9905143368046759877465490e-01 -7.2787322416840716243768838e-01 -1.9905143368046751550792806e-01 -5.2138041000641427435979836e-02 6.3029230733400415376266324e-02
1.1854999999999999715782906e+02 1.6081721519848646284600591e-01 1.8470631254811695209916422e-01 -7.3745093252928173299665104e-01 -1.5003934898221055194156293e-01 -7.3745093252928173299665104e-01 -1.5003934898221060745271416e-01 -4.5628231380377748394039372e-02 7.2874120744247455894182508e-02
1.1870000000000000284217094e+02 1.5146825038665717721997339e-01 1.8978546414085309401720281e-01 -7.4275816500071445425135153e-01 -1.0098747654517273297791746e-01 -7.4275816500071456527365399e-01 -1.0098747654517267746676623e-01 -4.1905711971027007067824854e-02 8.5541157246547788739476914e-02
1.1884999999999999431565811e+02 1.4341071755247841723601709e-01 1.9429956100764281257120558e-01 -7.4523262018599034650634394e-01 -5.1501438106580109399512679e-02 -7.4523262018599034650634394e-01 -5.1501438106580137155088295e-02 -3.7571167131037364050882843e-02 1.0113368312849699282018889e-01
1.1900000000000000000000000e+02 1.3649303390759784382346709e-01 1.9856180295484870956812529e-01 -7.4471668970280036070619190e-01 -2.7759484375758274390944003e-03 -7.4471668970280036070619190e-01 -2.7759484375758404495204701e-03 -2.8941992810597755303447798e-02 1.1933501253267173036753945e-01
1.1915000000000000568434189e+02 1.3295472588041060135743976e-01 2.0332616142840068129693520e-01 -7.4241980270877083736280611e-01 4.4767217526489745671458564e-02 -7.4241980270877083736280611e-01 4.4767217526489752610352468e-02 -1.6511529432711866821614777e-02 1.3677872414524236410748870e-01
1.1929999999999999715782906e+02 1.2709531133629670129892020e-01 2.0406183580501938146234409e-01 -7.3858328090121339037921189e-01 9.1734738665334894514025166e-02 -7.3858328090121327935690942e-01 9.1734738665334880636237358e-02 2.5724540009011524765991652e-03 1.5967483245019220561289330e-01
1.1945000000000000284217094e+02 1.1426556034870469225062095e-01 2.0738235691318518405523719e-01 -7.2961539083847570807961347e-01 1.3990664608206634933473822e-01 -7.2961539083847548603500854e-01 1.3990664608206632157916260e-01 3.4075834077262584509426802e-02 1.7209208334387648964280970e-01
1.1959999999999999431565811e+02 1.0346668554056351330139307e-01 2.1560973098756383570240303e-01 -7.1727158898780130069638972e-01 1.8785495476750449506120333e-01 -7.1727158898780107865178479e-01 1.8785495476750443955005210e-01 6.9042651064055021725707206e-02 1.6781401704992907064628582e-01
1.1975000000000000000000000e+02 9.7196848916902028880926423e-02 2.2427947336994993876579940e-01 -7.0273322154376827164412589e-01 2.3385469826746277388629380e-01 -7.0273322154376816062182343e-01 2.3385469826746260735284011e-01 9.5430037051932203873150229e-02 1.5097761188693434308838448e-01
1.1990000000000000568434189e+02 9.3186285520321848752089977e-02 2.3094428758759810715872618e-01 -6.8616812694357920410226370e-01 2.7873980864002967372528019e-01 -6.8616812694357953716917109e-01 2.7873980864002984025873388e-01 1.1194367451364053978046798e-01 1.3034870259786077162367235e-01
1.2004999999999999715782906e+02 8.9109838442512079303980954e-02 2.3828568926197898902863415e-01 -6.6651464499198698199222690e-01 3.2126338692091732651689995e-01 -6.6651464499198687096992444e-01 3.2126338692091721549459749e-01 1.2329937051713771301031386e-01 1.1080020960345267344582254e-01
1.2020000000000000284217094e+02 8.4997921673813953136189525e-02 2.4528527263640909072961449e-01 -6.4484478931849253946495537e-01 3.6258004053624476314965364e-01 -6.4484478931849265048725783e-01 3.6258004053624459661619994e-01 1.3024785531717103514992573e-01 9.1923889214093612576306214e-02
1.2034999999999999431565811e+02 8.3204526635012876489838618e-02 2.5299992447315439170196782e-01 -6.2114276108482702198898551e-01 4.0388826985537817915172809e-01 -6.2114276108482713301128797e-01 4.0388826985537823466287932e-01 1.3731070541741963175752517e-01 6.9478464444625243068287546e-02
1.2050000000000000000000000e+02 8.4853678441624266759468753e-02 2.5910330920347496297395651e-01 -5.9528639813667816316211656e-01 4.4442517443237733454353133e-01 -5.9528639813667805213981410e-01 4.4442517443237744556583380e-01 1.3746580522177487271306973e-01 4.1886481802079870984112375e-02
1.2065000000000000568434189e+02 8.6306312173633256690230553e-02 2.5991253079349685428667271e-01 -5.6692621722509983772653186e-01 4.8378278593050327849311998e-01 -5.6692621722509961568192693e-01 4.8378278593050283440391013e-01 1.2916943189474935915761478e-01 1.7208630590167625640241056e-02
1.2079999999999999715782906e+02 8.7988784800864874857673215e-02 2.5786418938428845581967153e-01 -5.3477096240557775441715194e-01 5.2249594372459740032610398e-01 -5.3477096240557786543945440e-01 5.2249594372459728930380152e-01 1.2257635274971609429250918e-01 -2.4892327297929769946982503e-03
1.2095000000000000284217094e+02 8.2110640836279599752423053e-02 2.5378225540025656226106321e-01 -4.9914140482636848439312871e-01 5.5841436465455274174018996e-01 -4.9914140482636820683737255e-01 5.5841436465455251969558503e-01 1.1459096256282082226807262e-01 -2.3221578244391062606499787e-02
1.2109999999999999431565811e+02 7.3299956758550180446754041e-02 2.5159016193708455544353342e-01 -4.5993512604453240522062174e-01 5.9315850158623883991992898e-01 -4.5993512604453212766486558e-01 5.9315850158623906196453390e-01 1.0189565584455584357215230e-01 -4.7542460939333071323620317e-02
1.2125000000000000000000000e+02 6.0974560675248978824924961e-02 2.4985810627795562721686906e-01 -4.1564972849579168157063691e-01 6.2542015052908839223277937e-01 -4.1564972849579168157063691e-01 6.2542015052908839223277937e-01 8.3036541097896265917199798e-02 -6.7959047879275508163843256e-02
1.2140000000000000568434189e+02 4.7943897203957697161769147e-02 2.5504158593555481537862306e-01 -3.6973591444779485559735122e-01 6.5025109492756383300360312e-01 -3.6973591444779485559735122e-01 6.5025109492756383300360312e-01 6.5659561613404207602862073e-02 -8.3450203124442734470278538e-02
1.2154999999999999715782906e+02 3.8054674467235094503791970e-02 2.6269449886654094861171416e-01 -3.2318559717381423190829537e-01 6.7004755408497174151705167e-01 -3.2318559717381423190829537e-01 6.7004755408497163049474921e-01 4.9658555356575428962884189e-02 -9.8870841316239063689685906e-02
1.2170000000000000284217094e+02 3.0087819524746831079120568e-02 2.7066231216228286982072859e-01 -2.7829989401806742854716958e-01 6.8642418749633704599943940e-01 -2.7829989401806742854716958e-01 6.8642418749633704599943940e-01 3.1060390372747947312914718e-02 -1.1803262726822830175343881e-01
1.2184999999999999431565811e+02 2.0994910205651820533923058e-02 2.8002949085170203424866031e-01 -2.3164859561326295311900481e-01 7.0211645825635438100675856e-01 -2.3164859561326292536342919e-01 7.0211645825635426998445610e-01 4.0919309431307893110130181e-03 -1.2952641541818843418099050e-01
1.2200000000000000000000000e+02 1.4093754925099150066003517e-02 2.8975931511167329901468293e-01 -1.8448999999482229572578262e-01 7.1275251458223076728160095e-01 -1.8448999999482229572578262e-01 7.1275251458223087830390341e-01 -1.8110842721805860133788002e-02 -1.3776706467190630300834187e-01
1.2215000000000000568434189e+02 8.8851649351091646633626908e-03 2.9841722636774387078517634e-01 -1.3880597558089374787826387e-01 7.2147119066364862050022566e-01 -1.3880597558089380338941510e-01 7.2147119066364873152252812e-01 -3.8586447467499104813093425e-02 -1.4745346504548678678858664e-01
1.2229999999999999715782906e+02 2.0012277391029884010542617e-03 3.0925830848837909670123736e-01 -9.1469489849431068195784178e-02 7.2759010112853172991265183e-01 -9.1469489849431123706935409e-02 7.2759010112853217400186168e-01 -6.1128036724530668277743928e-02 -1.5219555675670054517567564e-01
1.2245000000000000284217094e+02 -6.7682953456346464649051597e-03 3.2060799912039755765746918e-01 -4.3361054478188693073192894e-02 7.2955735780882324803542360e-01 -4.3361054478188700012086798e-02 7.2955735780882324803542360e-01 -8.6227816935137188703031086e-02 -1.5698182199414739690368492e-01
1.2259999999999999431565811e+02 -1.0581551731830686133295494e-02 3.3699113152878951149560294e-01 2.6431133736338928083564603e-03 7.2795178794497994445578115e-01 2.6431133736338611496530238e-03 7.2795178794497961138887376e-01 -1.1036969113667646769094688e-01 -1.5710106632776793533778914e-01
1.2275000000000000000000000e+02 -1.2277298621588880050969905e-02 3.5379958837144198646740278e-01 4.4609285373957113796095086e-02 7.2467415170089399811814701e-01 4.4609285373957183185034125e-02 7.2467415170089410914044947e-01 -1.3398184257861855961380115e-01 -1.5310621415607261752711565e-01
1.2290000000000000568434189e+02 -8.3268845923805678843621081e-03 3.6713034912552111599381988e-01 8.5586365441234255047042723e-02 7.2335364895852771738304909e-01 8.5586365441234185658103684e-02 7.2335364895852782840535156e-01 -1.5437552621182112910780404e-01 -1.4790244054581505595002966e-01
1.2304999999999999715782906e+02 -1.4020746683461593473651874e-03 3.8126679438225985485644287e-01 1.3114721921926481007503185e-01 7.2231059479679127210971501e-01 1.3114721921926486558618308e-01 7.2231059479679127210971501e-01 -1.7480158804450121601270496e-01 -1.3936234804471175907636393e-01
1.2320000000000000284217094e+02 9.9563134322215862681559884e-03 3.8756706368370824611346848e-01 1.8126880324714983450107297e-01 7.1653440918929789393843066e-01 1.8126880324714975123434613e-01 7.1653440918929800496073312e-01 -1.8810070345220947229947228e-01 -1.2448317488134920394404759e-01
1.2334999999999999431565811e+02 1.3748133035099599497108613e-02 3.9160901818367344073834602e-01 2.2923732290372975106684805e-01 7.0498199890972079728612698e-01 2.2923732290372977882242367e-01 7.0498199890972068626382452e-01 -2.0087860195057644085991910e-01 -1.1622232169411739199915701e-01
1.2350000000000000000000000e+02 1.4589153858996506407663674e-02 3.9560930521105835966366726e-01 2.7649104760776233025154625e-01 6.9107548820397446398544616e-01 2.7649104760776233025154625e-01 6.9107548820397435296314370e-01 -2.1674623916192636841060448e-01 -1.0544342899211704700501713e-01
1.2365000000000000568434189e+02 1.7293093223218591880652184e-02 4.0156962581570271320074994e-01 3.2384256093940178011791886e-01 6.7276473097333711059775396e-01 3.2384256093940150256216270e-01 6.7276473097333677753084658e-01 -2.2920997683640464970267203e-01 -8.9491180545689552605637118e-02
1.2379999999999999715782906e+02 1.8568756590132795558645284e-02 4.0659334411683895060818372e-01 3.6931452051055485563679781e-01 6.5106592624438774929984675e-01 3.6931452051055491114794904e-01 6.5106592624438786032214921e-01 -2.3787854189445362118604521e-01 -7.3875737810418687367963742e-02
1.2395000000000000284217094e+02 1.7147356980972500162252459e-02 4.1255850199943794320844859e-01 4.1337573584316317232278948e-01 6.2569843867533148085158246e-01 4.1337573584316311681163825e-01 6.2569843867533148085158246e-01 -2.4726867575730659964960978e-01 -5.8365693499783224962307315e-02
1.2409999999999999431565811e+02 1.7210836772860477195123963e-02 4.2166316623353861103851159e-01 4.5572994570809655101584212e-01 5.9583309433854958481191488e-01 4.5572994570809638448238843e-01 5.9583309433854947378961242e-01 -2.6219769794602076906642196e-01 -4.0238859225233486460737709e-02
1.2425000000000000000000000e+02 2.3555666013028664362849440e-02 4.3272520222415566948370724e-01 4.9235696523445643402183691e-01 5.6283984866892300402696492e-01 4.9235696523445648953298814e-01 5.6283984866892300402696492e-01 -2.7457207814450168559261556e-01 -9.5629892314324227431399095e-03
1.2440000000000000568434189e+02 3.5652376748258662875201708e-02 4.3673708431403146512650437e-01 5.2566959644979061039293811e-01 5.3099576470509202152925354e-01 5.2566959644979049937063564e-01 5.3099576470509191050695108e-01 -2.7645544695977875004899715e-01 2.9911379443447350112705863e-02
1.2454999999999999715782906e+02 4.5843710880417193331837211e-02 4.3467326507044379280131352e-01 5.6101136143691077151629543e-01 4.9925954426862867441272442e-01 5.6101136143691077151629543e-01 4.9925954426862861890157319e-01 -2.5961864292895153738527370e-01 6.9654341276966597051867325e-02
1.2470000000000000284217094e+02 5.0566207363054505030675045e-02 4.2931685055314006138615923e-01 5.9562457765169551926476288e-01 4.6363896561457773604075783e-01 5.9562457765169529722015795e-01 4.6363896561457745848500167e-01 -2.3500929198269576714253049e-01 1.0049308750347971108674017e-01
1.2484999999999999431565811e+02 5.3917861779850834169636187e-02 4.2229888728230691175014044e-01 6.2789061093764575449682752e-01 4.2516881225686520284767766e-01 6.2789061093764575449682752e-01 4.2516881225686520284767766e-01 -2.0821985756201316641877952e-01 1.2534286091114590910855497e-01
1.2500000000000000000000000e+02 5.2498023966323359434937856e-02 4.1541018067307389216580304e-01 6.5787997649563723090437861e-01 3.8310627442469052938989194e-01 6.5787997649563734192668107e-01 3.8310627442469069592334563e-01 -1.7946209496272574890340934e-01 1.4500260488695942973080832e-01
1.2515000000000000568434189e+02 4.6066577931866775630354027e-02 4.0766508552642621854289473e-01 6.8539826781241064423966236e-01 3.3660051873715857162494558e-01 6.8539826781241064423966236e-01 3.3660051873715829406918942e-01 -1.4636305792489362476160863e-01 1.6063480237527902327876461e-01
1.2529999999999999715782906e+02 3.3319533343871859942808555e-02 4.0415985356827177632510484e-01 7.0735045341413227415472420e-01 2.8818208401022837872318405e-01 7.0735045341413194108781681e-01 2.8818208401022826770088159e-01 -1.1120899157149319314008551e-01 1.7083026241994347937946941e-01
1.2545000000000000284217094e+02 1.9225571839096664006341086e-02 4.0603829918000899912300383e-01 7.2462824431285544068970239e-01 2.4052543628762543259647089e-01 7.2462824431285499660049254e-01 2.4052543628762540484089527e-01 -7.6937514890922431565201123e-02 1.7933956349379495676110707e-01
1.2559999999999999431565811e+02 4.6909192709557318012869587e-03 4.1076865538399232047339638e-01 7.3984703775516280632729149e-01 1.9251016721978125856296060e-01 7.3984703775516313939419888e-01 1.9251016721978134182968745e-01 -3.6905048238775869928751661e-02 1.8548906927024819135674250e-01
1.2575000000000000000000000e+02 -6.9864368135959808991941600e-03 4.2225099197935267447689967e-01 7.5213292544980314691116519e-01 1.4195675128527154851276748e-01 7.5213292544980303588886272e-01 1.4195675128527152075719187e-01 2.3748298041975160477257134e-03 1.7916814104364989224116300e-01
1.2590000000000000568434189e+02 -1.6167294551492863985409087e-02 4.3655388060729755084210524e-01 7.6076403689664617857602025e-01 9.0916693367659423552495923e-02 7.6076403689664584550911286e-01 9.0916693367659368041344692e-02 3.8676948904685801156055902e-02 1.6818061390393518328423283e-01
1.2604999999999999715782906e+02 -2.3255085923842247486170720e-02 4.5168441651505664147236985e-01 7.6575408791895260840476567e-01 4.0746289425246585980122660e-02 7.6575408791895316351627798e-01 4.0746289425246509652289717e-02 7.2476607803327333656717713e-02 1.5511735055928216331366798e-01
1.2620000000000000284217094e+02 -2.6491782304834291666972845e-02 4.6978847047280447579709062e-01 7.6810217033677496978327781e-01 -9.4572813160122282116759607e-03 7.6810217033677474773867289e-01 -9.4572813160123756631714187e-03 1.0097383335982552943210777e-01 1.3814234151749743562120898e-01
1.2634999999999999431565811e+02 -2.4519414705202316473453550e-02 4.8961676917322288771217131e-01 7.6739163377382157982253830e-01 -6.0683093060254642003847891e-02 7.6739163377382146880023583e-01 -6.0683093060254676698317411e-02 1.2726025911055721673292851e-01 1.2184491595680689568492738e-01
1.2650000000000000000000000e+02 -1.7115080060878612444597024e-02 5.0927240155129094301145187e-01 7.6371787402124347021725725e-01 -1.1083936312987231753712791e-01 7.6371787402124324817265233e-01 -1.1083936312987241468164257e-01 1.5047090561588857826613719e-01 1.0098534797033706378321938e-01
1.2665000000000000568434189e+02 -4.4079132717126656704209609e-03 5.2593678462949888796629239e-01 7.5885728883359071517133998e-01 -1.6175759344025156249990971e-01 7.5885728883359071517133998e-01 -1.6175759344025134045530478e-01 1.6667735949040668463894121e-01 8.0491739131796233297500009e-02
1.2679999999999999715782906e+02 1.1610437293934489089153317e-02 5.3828957296177015745541894e-01 7.5102681161379392094090690e-01 -2.1527059061238157378070923e-01 7.5102681161379414298551183e-01 -2.1527059061238162929186046e-01 1.8097387852383797768318630e-01 6.4517603606307483143922354e-02
1.2695000000000000284217094e+02 2.9111248706646858375179931e-02 5.4406099783781614043220998e-01 7.3669912354142208510410228e-01 -2.6968426641857717873662637e-01 7.3669912354142219612640474e-01 -2.6968426641857701220317267e-01 1.9655549124650864567520614e-01 4.9880384305505100217548176e-02
1.2709999999999999431565811e+02 4.5964046376541195515486038e-02 5.4502742563320460966735936e-01 7.1743544905592793181625666e-01 -3.2356883728052565629695891e-01 7.1743544905592826488316405e-01 -3.2356883728052587834156384e-01 2.1060325772550597678289819e-01 3.3957771527052219018294466e-02
1.2725000000000000000000000e+02 6.1406309065972358718354940e-02 5.4589713425545149938500344e-01 6.9300992603054389906702681e-01 -3.7661046981926443733001975e-01 6.9300992603054378804472435e-01 -3.7661046981926427079656605e-01 2.2330701477788009179370476e-01 1.6443867789375815613439613e-02
1.2740000000000000568434189e+02 7.4707024957025414124700546e-02 5.4260888714887922645857543e-01 6.6335516062384969337983875e-01 -4.2601739517218428776601513e-01 6.6335516062385013746904860e-01 -4.2601739517218462083292252e-01 2.3247051040744914907065777e-01 -1.8128945287625153337529582e-03
1.2754999999999999715782906e+02 8.6601190496988306177783556e-02 5.4001211954198535813986837e-01 6.2927776256418477274223733e-01 -4.7262056034479449362351033e-01 6.2927776256418466171993487e-01 -4.7262056034479466015696403e-01 2.4216374183225974903166389e-01 -1.5949081667844963727809215e-02
1.2770000000000000284217094e+02 1.0290456384321633453993172e-01 5.3468014431492061344641797e-01 5.8982397948075471205697795e-01 -5.1470214914988887677793628e-01 5.8982397948075449001237303e-01 -5.1470214914988909882254120e-01 2.5405294304594050469603417e-01 -3.5171646062328212889447343e-02
1.2784999999999999431565811e+02 1.1907453606316129035569418e-01 5.2395563093541552834864206e-01 5.5026964372511610879001864e-01 -5.5187955911580321988196829e-01 5.5026964372511633083462357e-01 -5.5187955911580344192657321e-01 2.5828441704130244982451359e-01 -5.8900433978812311019979120e-02
1.2800000000000000000000000e+02 1.3265516984338765471562738e-01 5.0783156201242851679467094e-01 5.0946574048173209892098612e-01 -5.8655194810768040980519800e-01 5.0946574048173209892098612e-01 -5.8655194810768018776059307e-01 2.5646631462499264175747271e-01 -8.2562391844816410135798890e-02
1.2815000000000000568434189e+02 1.4039527481932198571534798e-01 4.8648127022963805199395892e-01 4.6717355460625781260475264e-01 -6.1857895796923800801891957e-01 4.6717355460625803464935757e-01 -6.1857895796923856313043188e-01 2.5047497393063922199729632e-01 -1.0324282480080301804825638e-01
1.2830000000000001136868377e+02 1.4118931841182785769106545e-01 4.6530137116118341911175094e-01 4.2242033648603410922461876e-01 -6.4704513322871670677471911e-01 4.2242033648603427575807245e-01 -6.4704513322871659575241665e-01 2.4277917522167519193132534e-01 -1.2191361851080723122109362e-01
1.2844999999999998863131623e+02 1.3846826212205282091716185e-01 4.4860099763806809969324263e-01 3.7530325253312718514209223e-01 -6.7303195361608547653275991e-01 3.7530325253312729616439469e-01 -6.7303195361608558755506238e-01 2.3130865989012752703679610e-01 -1.3648609173572417985198513e-01
1.2859999999999999431565811e+02 1.3491601458411220382238582e-01 4.3150754897951282273993456e-01 3.2710461219972547519674322e-01 -6.9563235702313230834903379e-01 3.2710461219972530866328952e-01 -6.9563235702313219732673133e-01 2.1841242582561792850981419e-01 -1.5249105764132178664205242e-01
1.2875000000000000000000000e+02 1.3067731181662955997069275e-01 4.1502031443806430832665910e-01 2.7862651870513754914782112e-01 -7.1536566684426772244620452e-01 2.7862651870513749363666989e-01 -7.1536566684426783346850698e-01 2.0256465918121852043398690e-01 -1.7073447419128662261300633e-01
1.2890000000000000568434189e+02 1.2449064137593694734373884e-01 3.9659048389878204243785831e-01 2.2911308244217204466153248e-01 -7.3289428750472596085785426e-01 2.2911308244217182261692756e-01 -7.3289428750472596085785426e-01 1.8110525639819713417111302e-01 -1.8968651505884120966882733e-01
1.2905000000000001136868377e+02 1.1201803075329584691299800e-01 3.7704620325611271081100995e-01 1.7585619926492712661314499e-01 -7.4785833744704832692917762e-01 1.7585619926492715436872061e-01 -7.4785833744704821590687516e-01 1.4820794913842022522132424e-01 -2.0642098997749874778051549e-01
1.2919999999999998863131623e+02 9.4983034990437031908072640e-02 3.6186326150561759495971614e-01 1.1934947599617133640048650e-01 -7.5571740159055400543053338e-01 1.1934947599617128088933526e-01 -7.5571740159055367236362599e-01 1.1192343782758139292266009e-01 -2.1129432785776683378919927e-01
1.2934999999999999431565811e+02 7.6295671833206568646090773e-02 3.5188195958340484637005829e-01 6.2924659338248006834604098e-02 -7.5708845235537491902277907e-01 6.2924659338248173368057792e-02 -7.5708845235537514106738399e-01 7.5390719888665427839136157e-02 -2.0710675635302577823892989e-01
1.2950000000000000000000000e+02 5.8327144155545372627980072e-02 3.4548676360967695009307477e-01 8.8959834702375187309719706e-03 -7.5204163031177595488685483e-01 8.8959834702374406684155517e-03 -7.5204163031177573284224991e-01 4.2258141567620401135574326e-02 -1.9771988883836244532687942e-01
1.2965000000000000568434189e+02 4.0680076116222221860319053e-02 3.4180944488291259419909807e-01 -4.0025469869208712969665953e-02 -7.4178187510230852996784279e-01 -4.0025469869208810114180608e-02 -7.4178187510230897405705264e-01 1.3771714943091732316626796e-02 -1.8340146259770020997770246e-01
1.2980000000000001136868377e+02 2.4944721064585416436809595e-02 3.3795282275425969631399425e-01 -8.4754203851909695743849227e-02 -7.3135075257791437586263328e-01 -8.4754203851910028810756614e-02 -7.3135075257791448688493574e-01 -8.7595885366935025834189688e-03 -1.6910809482109467882793297e-01
1.2994999999999998863131623e+02 8.0389049900572578932766987e-03 3.3428051775869965789311777e-01 -1.2966333476937616508983808e-01 -7.2077614875847328956837146e-01 -1.2966333476937616508983808e-01 -7.2077614875847317854606899e-01 -3.1767637963515171772854728e-02 -1.5844954628392282636184518e-01
1.3009999999999999431565811e+02 -1.1595311415572503999094067e-02 3.3447991428107815004011627e-01 -1.7304318799193854627738176e-01 -7.0704078230189182363574218e-01 -1.7304318799193835198835245e-01 -7.0704078230189171261343972e-01 -5.8211497592517702504011368e-02 -1.4828051977570971819986312e-01
1.3025000000000000000000000e+02 -3.1706691527253194617941290e-02 3.3566063169831195089898301e-01 -2.1331490964895175044269138e-01 -6.9082249940276085897750136e-01 -2.1331490964895163942038891e-01 -6.9082249940276096999980382e-01 -8.6525657682052559138696779e-02 -1.3223283036881974816800778e-01
1.3040000000000000568434189e+02 -5.3672023775035021531110146e-02 3.4195169943351799712871752e-01 -2.5219088766353625619132117e-01 -6.7406451191717386972612758e-01 -2.5219088766353636721362363e-01 -6.7406451191717398074843004e-01 -1.1451681097864166436472999e-01 -1.1289275068716242422794949e-01
1.3055000000000001136868377e+02 -7.0589636635540312092906845e-02 3.5429939322495568321258474e-01 -2.8959802307816301381038215e-01 -6.5573336990443709115794491e-01 -2.8959802307816262523232353e-01 -6.5573336990443698013564244e-01 -1.3882164802901356126518806e-01 -8.6943769854803371055496086e-02
1.3069999999999998863131623e+02 -8.3923590050331092760060869e-02 3.6874658136709470568348479e-01 -3.2477062835180187105876826e-01 -6.3778414256602389276196163e-01 -3.2477062835180198208107072e-01 -6.3778414256602422582886902e-01 -1.5697208466186590714031013e-01 -5.7148053556851437229102686e-02
1.3084999999999999431565811e+02 -9.4547640112232628206712093e-02 3.8227606365684985156860876e-01 -3.5957368338160400345060452e-01 -6.2185055938312383538857375e-01 -3.5957368338160405896175575e-01 -6.2185055938312383538857375e-01 -1.6813375963772941856788634e-01 -2.6991190674254747494664741e-02
1.3100000000000000000000000e+02 -1.0226180432687756449716687e-01 3.9543995309188334497108031e-01 -3.9593250044479133542552063e-01 -6.0384824826888128246338283e-01 -3.9593250044479150195897432e-01 -6.0384824826888139348568529e-01 -1.7531038729224807104500883e-01 8.2530545577924607769659815e-04
1.3115000000000000568434189e+02 -1.0573797998283354648840771e-01 4.0875976691965032472353414e-01 -4.3321250063255256623762079e-01 -5.8245064493651332870882698e-01 -4.3321250063255251072646956e-01 -5.8245064493651332870882698e-01 -1.7973592126847695582547715e-01 2.6370034695014754611008811e-02
1.3130000000000001136868377e+02 -1.0674441180219082503377592e-01 4.2177073873414006044413327e-01 -4.7069775260596830035453308e-01 -5.6147225232688202645192632e-01 -4.7069775260596824484338185e-01 -5.6147225232688191542962386e-01 -1.7762489699432831846692693e-01 5.3728494776738258686954453e-02
1.3144999999999998863131623e+02 -1.1016570210960574538461287e-01 4.3296354028628092347474876e-01 -5.0964807747775475732510131e-01 -5.3782316422454001791919609e-01 -5.0964807747775475732510131e-01 -5.3782316422454001791919609e-01 -1.7077638566291475363811969e-01 7.5797265522663165304706467e-02
1.3159999999999999431565811e+02 -1.1036869637873039651232432e-01 4.4492435992553069912247565e-01 -5.4838250952418376993335869e-01 -5.1019852165822654477267406e-01 -5.4838250952418354788875376e-01 -5.1019852165822676681727899e-01 -1.6024084888628242762109721e-01 9.3549758201527860590474006e-02
1.3175000000000000000000000e+02 -1.0714250415571230368172451e-01 4.5506405527023985335688394e-01 -5.8737416219403049133518380e-01 -4.7738467297546605117020135e-01 -5.8737416219403071337978872e-01 -4.7738467297546627321480628e-01 -1.4662562729348516121774537e-01 1.0614970520962695166300449e-01
1.3190000000000000568434189e+02 -1.0221062927371585282720901e-01 4.6297200121963377750233803e-01 -6.2544598807188012123958742e-01 -4.4035103012594078997210545e-01 -6.2544598807188034328419235e-01 -4.4035103012594073446095422e-01 -1.3118542168089544763809329e-01 1.1286991984849910342081358e-01
1.3205000000000001136868377e+02 -9.8407188633758274631802010e-02 4.7008435163234119080755136e-01 -6.6176972192399763361692067e-01 -3.9930567009153439261837093e-01 -6.6176972192399752259461820e-01 -3.9930567009153428159606847e-01 -1.1732762369426227855306877e-01 1.1372228379357834926466353e-01
1.3219999999999998863131623e+02 -9.3730665975192820060790666e-02 4.7519904032514864722358539e-01 -6.9431661686591883420049953e-01 -3.5471443654393319810935736e-01 -6.9431661686591872317819707e-01 -3.5471443654393336464281106e-01 -1.0561255620048973224989197e-01 1.1378345814238668975981739e-01
1.3234999999999999431565811e+02 -8.8241675429104354799747512e-02 4.7610546000511427822132760e-01 -7.2249297105899890070190850e-01 -3.0464704952645216273765527e-01 -7.2249297105899845661269865e-01 -3.0464704952645221824880650e-01 -9.5746701884771065471646523e-02 1.1041729397581860616650573e-01
1.3250000000000000000000000e+02 -8.3662976894610621703129993e-02 4.7488016361857865454965122e-01 -7.4664466353601743886514441e-01 -2.5186633103963645963219165e-01 -7.4664466353601732784284195e-01 -2.5186633103963634860988918e-01 -8.8325339417093529092994686e-02 1.0475883658436013767811801e-01
1.3265000000000000568434189e+02 -8.0921406743400731143012194e-02 4.7325668531688303009019592e-01 -7.6805240164267651881147003e-01 -1.9766170696101081905027286e-01 -7.6805240164267674085607496e-01 -1.9766170696101081905027286e-01 -8.0428055090194350285059954e-02 1.0248216145641292351697871e-01
1.3280000000000001136868377e+02 -8.1746235914754300511120277e-02 4.7060606701168333776408303e-01 -7.8474459440639865448474666e-01 -1.4021515694958880393627965e-01 -7.8474459440639865448474666e-01 -1.4021515694958869291397718e-01 -6.9339325641348092954530102e-02 9.6353343336872843138962708e-02
1.3294999999999998863131623e+02 -8.4054863733111745416337612e-02 4.6792782946941019472930634e-01 -7.9347909628049995145460116e-01 -8.0926016120232840966863819e-02 -7.9347909628050017349920608e-01 -8.0926016120232813211288203e-02 -6.1801779305523336927041811e-02 9.0691274871402244306395346e-02
1.3309999999999999431565811e+02 -8.9941576491164812456879929e-02 4.6700656421427311215666123e-01 -7.9733733206803891757630254e-01 -2.0755382355185331838542950e-02 -7.9733733206803869553169761e-01 -2.0755382355185383880247230e-02 -5.2762749936378403048387042e-02 8.3263551010377273575713275e-02
1.3325000000000000000000000e+02 -9.5587821612190981834800141e-02 4.7171538878739283084939871e-01 -7.9843521131178663008398644e-01 3.8492829709028814066940072e-02 -7.9843521131178640803938151e-01 3.8492829709028786311364456e-02 -4.2553121930859721944173657e-02 7.5685077078120888138812461e-02
1.3340000000000000568434189e+02 -1.0069771944639721583669711e-01 4.8056957754081441880344983e-01 -7.9398328382449012696753243e-01 9.7372778942255974743424929e-02 -7.9398328382448990492292751e-01 9.7372778942255891476698082e-02 -3.3134404681424631244901491e-02 6.7797638618208810878940085e-02
1.3355000000000001136868377e+02 -1.0155528883816276886076224e-01 4.8978810013886520113857159e-01 -7.8213212587691693933322767e-01 1.5532610673209984453180255e-01 -7.8213212587691693933322767e-01 1.5532610673209965024277324e-01 -2.2440246201210219123556300e-02 5.9327116389412036523420824e-02
1.3369999999999998863131623e+02 -9.9201908970717886382395534e-02 4.9880640569798589956107548e-01 -7.6613255949809755396273658e-01 2.1156156922707866629984608e-01 -7.6613255949809766498503905e-01 2.1156156922707844425524115e-01 -1.2480722541680807496922156e-02 5.0246423104371211454388657e-02
1.3384999999999999431565811e+02 -9.3603519888502378920591696e-02 5.0922427200606379393832412e-01 -7.4783200942213567952165931e-01 2.6506924805950216050831614e-01 -7.4783200942213567952165931e-01 2.6506924805950204948601368e-01 -1.5695649721340562687821318e-05 3.9588762381970094006433669e-02
1.3400000000000000000000000e+02 -8.4260306036687687702979588e-02 5.1665860866216295477215681e-01 -7.2578491043002402172135135e-01 3.1726824572557532633254596e-01 -7.2578491043002357763214150e-01 3.1726824572557532633254596e-01 9.9962438546021166463351193e-03 2.5691461400936966424923824e-02
1.3415000000000000568434189e+02 -7.5327263887696699340423834e-02 5.1952714215874973291420247e-01 -6.9853791718150826106636941e-01 3.6511071033441239164218928e-01 -6.9853791718150837208867188e-01 3.6511071033441228061988681e-01 1.7951954855286732931629601e-02 1.5441148273923718803324334e-02
1.3430000000000001136868377e+02 -6.5982446094395047486713679e-02 5.2132074082918078428150466e-01 -6.6920761811019902065567067e-01 4.1023120718218070157590205e-01 -6.6920761811019868758876328e-01 4.1023120718218059055359959e-01 2.7600765135916003473193214e-02 6.7267491758699216736205884e-03
1.3444999999999998863131623e+02 -5.2158182655883095213411593e-02 5.2534695083441029783699605e-01 -6.3992193840263700277404268e-01 4.5482312251993067819810790e-01 -6.3992193840263689175174022e-01 4.5482312251993051166465420e-01 3.8034042764439106310003780e-02 -5.7762334282895951703684645e-03
1.3459999999999999431565811e+02 -3.7192204931734557105116323e-02 5.2528153648249564788841326e-01 -6.0659274593709655576390105e-01 4.9749690073148994384766297e-01 -6.0659274593709655576390105e-01 4.9749690073148977731420928e-01 4.5364843238838298278281513e-02 -2.0050262383562500456690714e-02
1.3475000000000000000000000e+02 -2.4877664802126858711872615e-02 5.1859694522565447094564206e-01 -5.7045678300697877372016364e-01 5.3450268288399527261134381e-01 -5.7045678300697877372016364e-01 5.3450268288399527261134381e-01 5.0752597424700382489071160e-02 -3.1570247219582431297268954e-02
1.3490000000000000568434189e+02 -1.3573857728188337690156118e-02 5.0982335643418030812767938e-01 -5.3362933733784723155935126e-01 5.7024766810460392196802104e-01 -5.3362933733784745360395618e-01 5.7024766810460436605723089e-01 5.6039867356799714925852385e-02 -4.1641264915870418450438706e-02
1.3505000000000001136868377e+02 -3.8056197579874884162620674e-04 5.0180342005269751304297188e-01 -4.9479272504958010658882017e-01 6.0792446035257985403887915e-01 -4.9479272504958032863342510e-01 6.0792446035258007608348407e-01 5.7688181296829184330210438e-02 -5.1392858595896505347067063e-02
1.3519999999999998863131623e+02 1.1422983387349566752888563e-02 4.9119554424321432151145927e-01 -4.5202939091045041264393944e-01 6.4148326892474638594165981e-01 -4.5202939091045057917739314e-01 6.4148326892474627491935735e-01 5.9510907189263433092474287e-02 -5.8882645207773157136621478e-02
1.3534999999999999431565811e+02 1.8557371865426497414830465e-02 4.7401207060786898495052810e-01 -4.0785890529567964124524337e-01 6.6886450935394925476629169e-01 -4.0785890529567969675639461e-01 6.6886450935394969885550154e-01 6.2672492995343276334097027e-02 -6.3695253392810749493158085e-02
1.3550000000000000000000000e+02 2.3050287051582935005100694e-02 4.5569516509858670749721909e-01 -3.6120975539497945927536193e-01 6.9438045744093401800967058e-01 -3.6120975539497962580881563e-01 6.9438045744093390698736812e-01 6.6712550925269675783368939e-02 -6.8851270519897200816927807e-02
1.3565000000000000568434189e+02 2.8128559992154744673342748e-02 4.4054718335480547164451082e-01 -3.1272675336494931697117750e-01 7.2094008403082077141021955e-01 -3.1272675336494937248232873e-01 7.2094008403082077141021955e-01 6.7280132625120198097690150e-02 -7.4090563624071750781219237e-02
1.3580000000000001136868377e+02 3.0444941621220938943181977e-02 4.2430103566560289918285775e-01 -2.6114619696059404585497532e-01 7.4314957949259363712002369e-01 -2.6114619696059399034382409e-01 7.4314957949259374814232615e-01 6.6150399816627958315962132e-02 -7.7976707556843216639919092e-02
1.3594999999999998863131623e+02 2.7249028277305603618074770e-02 4.0298082926079981103129057e-01 -2.0789407516558949806650958e-01 7.5823390267872003978055773e-01 -2.0789407516558963684438766e-01 7.5823390267872003978055773e-01 6.5484550207214775596753498e-02 -8.0428948257491972295696314e-02
1.3609999999999999431565811e+02 2.0045195644913735288916712e-02 3.8362424173895964818470361e-01 -1.5516283864648588997070533e-01 7.6896129753521502703250690e-01 -1.5516283864648600099300779e-01 7.6896129753521480498790197e-01 6.3715449431734211271916024e-02 -8.1552283690404694938003161e-02
1.3625000000000000000000000e+02 1.3100099762169171990766614e-02 3.6949089419775948961444101e-01 -9.9544756287667637839611245e-02 7.7778873355387478927269740e-01 -9.9544756287667748861913708e-02 7.7778873355387434518348755e-01 6.2075385026447681136030354e-02 -7.7666372094177232865419569e-02
1.3640000000000000568434189e+02 5.9604918626572286899367725e-03 3.5706067730365981249818219e-01 -4.4342370990703247612962912e-02 7.8228794166870796455981463e-01 -4.4342370990703365574159278e-02 7.8228794166870818660441955e-01 6.1400760765329909229848226e-02 -7.4513205918257455206976658e-02
1.3655000000000001136868377e+02 -4.9454449191345577555023461e-03 3.4231488793620390431726719e-01 9.0558833020622005877120486e-03 7.8149163588751024978051873e-01 9.0558833020622942627797514e-03 7.8149163588751002773591381e-01 5.9651151573843715081313377e-02 -7.4537246631372233718337839e-02
1.3669999999999998863131623e+02 -1.8034723083085332784314403e-02 3.2966502283521864624660225e-01 6.1935592147472413870890051e-02 7.7782084359962910813379722e-01 6.1935592147472566526555937e-02 7.7782084359962910813379722e-01 5.5561480546438828109767627e-02 -7.2491877463534304393277807e-02
1.3684999999999999431565811e+02 -3.1040522180131140117520516e-02 3.2057249273550575408009422e-01 1.1702704743458644531806101e-01 7.7118562797593903646031777e-01 1.1702704743458657021815128e-01 7.7118562797593903646031777e-01 4.8774451022817993939284520e-02 -6.6602499278950400007914823e-02
1.3700000000000000000000000e+02 -4.3568995224414250322375608e-02 3.1478701268076081376534603e-01 1.7046830170462062836733708e-01 7.6059095525404474269492994e-01 1.7046830170462065612291269e-01 7.6059095525404452065032501e-01 4.2086528268838532818030274e-02 -5.7362581908746920755781673e-02
1.3715000000000000568434189e+02 -5.8486932349860687452292041e-02 3.0877470034763804251909391e-01 2.2074434976815729414489908e-01 7.4603198819499139116118158e-01 2.2074434976815754394507962e-01 7.4603198819499116911657666e-01 3.6484257014164724053362221e-02 -4.6417493747246872659584227e-02
1.3730000000000001136868377e+02 -7.1881938774750187004514146e-02 3.0517475633035301418871654e-01 2.7047932190721785117304421e-01 7.2914315618676084351790223e-01 2.7047932190721790668419544e-01 7.2914315618676073249559977e-01 3.2551440217110788610810346e-02 -3.3698661852398885396819850e-02
1.3744999999999998863131623e+02 -8.2474072229515971166335930e-02 3.0621538609199083769141225e-01 3.2242336720544317874015405e-01 7.0923152086055496479133353e-01 3.2242336720544323425130528e-01 7.0923152086055496479133353e-01 3.1988055722265026914463704e-02 -1.8589746734010016704363721e-02
1.3759999999999999431565811e+02 -9.0426283195901291378504538e-02 3.0835343932319514426154683e-01 3.7277850368425990978948903e-01 6.8572120628457111646270050e-01 3.7277850368425974325603534e-01 6.8572120628457111646270050e-01 3.4610387715207364955904978e-02 -3.3310840338105773827948042e-03
1.3775000000000000000000000e+02 -9.8056500706926341681679560e-02 3.0861242931190735472313236e-01 4.1967821515029180012845700e-01 6.5890529267032738047760176e-01 4.1967821515029191115075946e-01 6.5890529267032715843299684e-01 3.7045765814024189666042730e-02 8.0499275396345073424475558e-03
1.3790000000000000568434189e+02 -1.0403395483371614960166340e-01 3.0878338539731869927251751e-01 4.6572306778461708409722064e-01 6.2762131999598336218326722e-01 4.6572306778461691756376695e-01 6.2762131999598302911635983e-01 3.7958116642001910046033686e-02 1.7076845391368181137359272e-02
1.3805000000000001136868377e+02 -1.0582869210601179854602805e-01 3.0880408806016002021266331e-01 5.1022019548247810050156659e-01 5.9217284596158359377682245e-01 5.1022019548247798947926412e-01 5.9217284596158348275451999e-01 4.2413995731906670161315276e-02 2.9134584041815701771493963e-02
1.3819999999999998863131623e+02 -1.0728309718956857699012630e-01 3.0629330138220089985168215e-01 5.5248754857101733950486278e-01 5.5354124267177728935251935e-01 5.5248754857101711746025785e-01 5.5354124267177728935251935e-01 4.8367418013602399284867062e-02 3.6319424474320981255370810e-02
1.3834999999999999431565811e+02 -1.1174498135333950366021583e-01 3.0050018944287609778953652e-01 5.8957505994971748375377274e-01 5.1221748659842281092835492e-01 5.8957505994971748375377274e-01 5.1221748659842258888375000e-01 4.9658442925261531142311355e-02 4.1501076694195775107498747e-02
1.3850000000000000000000000e+02 -1.1722111373811740231420941e-01 2.9417864414942895834315095e-01 6.2393989085258483306972721e-01 4.6810597072003623519975690e-01 6.2393989085258483306972721e-01 4.6810597072003629071090813e-01 5.0097130605530455771390308e-02 4.7051209255319678681495077e-02
1.3865000000000000568434189e+02 -1.2228106475184682966350636e-01 2.8973351910074945925188672e-01 6.5558213857695946114034768e-01 4.2019346261584178403580836e-01 6.5558213857695923909574276e-01 4.2019346261584183954695959e-01 5.3444770371809280362640493e-02 5.2343432606180115285177123e-02
1.3880000000000001136868377e+02 -1.2803720283308839267277790e-01 2.8508186598627566210595319e-01 6.8285251192938922759623210e-01 3.7038848234778815049494938e-01 6.8285251192938922759623210e-01 3.7038848234778809498379815e-01 5.6253486426488336080709018e-02 5.5560899440022834538943641e-02
1.3894999999999998863131623e+02 -1.3633082309829111511412236e-01 2.7960356181711937262335255e-01 7.0469158183129565475866229e-01 3.2031176219462659249259673e-01 7.0469158183129576578096476e-01 3.2031176219462670351489919e-01 5.6856896100846252006810744e-02 5.9336812130014668364985653e-02
1.3909999999999999431565811e+02 -1.4540160610106339644786999e-01 2.7537533651817763802327477e-01 7.2290276458738833564865445e-01 2.6892059574305937630356311e-01 7.2290276458738855769325937e-01 2.6892059574305920977010942e-01 5.8334774639536082774249337e-02 6.3360991943334679654675767e-02
1.3925000000000000000000000e+02 -1.5150502408496541173477112e-01 2.7218514497146217845369165e-01 7.3750121294173121011539251e-01 2.1638173587655573637533735e-01 7.3750121294173087704848513e-01 2.1638173587655576413091296e-01 6.1638537085648578695007416e-02 6.4035412711026112875245531e-02
1.3940000000000000568434189e+02 -1.5970192430208887679476959e-01 2.6861880280134364795685542e-01 7.4819870081783268478403670e-01 1.6435026685962697556853129e-01 7.4819870081783268478403670e-01 1.6435026685962711434640937e-01 6.6880475228320912517432362e-02 6.2121073299850504412233931e-02
1.3955000000000001136868377e+02 -1.6917954558690595501246889e-01 2.6451461072305099131440898e-01 7.5545870333268227980738629e-01 1.1340364538588018628040288e-01 7.5545870333268250185199122e-01 1.1340364538588017240261507e-01 6.9098771731906052928628981e-02 5.7875918681913184060672251e-02
1.3969999999999998863131623e+02 -1.7972600978169644969639762e-01 2.6135750209888969353144716e-01 7.6032569725900756019143500e-01 6.1547826853614442943474216e-02 7.6032569725900789325834239e-01 6.1547826853614456821262024e-02 7.0191805513324198595448422e-02 5.2519927212040816433269441e-02
1.3984999999999999431565811e+02 -1.8897208327335318633899419e-01 2.6058987484493140174279802e-01 7.6146630096516676466933404e-01 8.3225723850990640517721886e-03 7.6146630096516654262472912e-01 8.3225723850988853752541630e-03 7.1493885405364027141317251e-02 4.3130747671852806557346582e-02
1.4000000000000000000000000e+02 -1.9850750008235532040323790e-01 2.6048847043982686910723601e-01 7.5918074583276884403915119e-01 -4.4579148822754210979013578e-02 7.5918074583276906608375612e-01 -4.4579148822754197101225770e-02 6.9905085344060535756938179e-02 3.1968888709083348453887652e-02
1.4015000000000000568434189e+02 -2.0761686508158250230593467e-01 2.5938934210843384020606095e-01 7.5337058297267034401301089e-01 -9.6611526302775807550915488e-02 7.5337058297267034401301089e-01 -9.6611526302775738161976449e-02 6.5292356323867442591257770e-02 2.0382032455944880389164808e-02
1.4030000000000001136868377e+02 -2.1767222436891509040890469e-01 2.5974617589008092144453599e-01 7.4391126802552642871546595e-01 -1.4871081252766940594689515e-01 7.4391126802552642871546595e-01 -1.4871081252766937819131954e-01 5.9571033491162155015796742e-02 8.3988112060793367052990988e-03
1.4044999999999998863131623e+02 -2.2603680732786057827610193e-01 2.6108665023303251340180964e-01 7.3063938546198015089316868e-01 -2.0112367281036519495174275e-01 7.3063938546198015089316868e-01 -2.0112367281036536148519644e-01 5.1567718917796691313615298e-02 -5.8056672939277341807806643e-03
1.4059999999999999431565811e+02 -2.3425635313752474209181287e-01 2.6384413594571243244502057e-01 7.1274622657596797825618751e-01 -2.5236845297039994795440521e-01 7.1274622657596820030079243e-01 -2.5236845297039967039864905e-01 3.9479419198468049256867118e-02 -2.1203424295609566568865390e-02
1.4075000000000000000000000e+02 -2.4331745656967862512232159e-01 2.6641269055133565135662366e-01 6.9177152467610503183692572e-01 -3.0278629089162084619957227e-01 6.9177152467610492081462326e-01 -3.0278629089162101273302596e-01 2.3692531103656051805206317e-02 -3.3610649442950953080799792e-02
1.4090000000000000568434189e+02 -2.5271133895510061728728601e-01 2.7032136210348944871384447e-01 6.6571680929290699690881183e-01 -3.5111527471282427681487093e-01 6.6571680929290677486420691e-01 -3.5111527471282383272566108e-01 6.7464237841399696260502594e-03 -4.2384474732149207687470494e-02
1.4105000000000001136868377e+02 -2.6051233437958731808947732e-01 2.7655622561646092671949759e-01 6.3569206487483398415605507e-01 -3.9572328563196301765003682e-01 6.3569206487483365108914768e-01 -3.9572328563196285111658312e-01 -9.4551644477605216454474402e-03 -4.9813504647088703569668411e-02
1.4119999999999998863131623e+02 -2.6602599963515283221227037e-01 2.8364487591935150234689900e-01 6.0260758124939961533073074e-01 -4.3771856402643077865732835e-01 6.0260758124939983737533566e-01 -4.3771856402643072314617712e-01 -2.6294425774487442670768189e-02 -5.7080192678899854819007942e-02
1.4134999999999999431565811e+02 -2.6902509833570809050229400e-01 2.9224393483098154433719174e-01 5.6727934228197318677899830e-01 -4.7797768107566096507099473e-01 5.6727934228197307575669583e-01 -4.7797768107566085404869227e-01 -4.3713962373386254511853366e-02 -6.2868926581550757526350992e-02
1.4150000000000000000000000e+02 -2.6952888965032290036205609e-01 3.0073848905845607104581063e-01 5.2881717628463020819395979e-01 -5.1467415352816936469082520e-01 5.2881717628462998614935486e-01 -5.1467415352816936469082520e-01 -6.2445618982262737772792605e-02 -6.7507416191683378148269412e-02
1.4165000000000000568434189e+02 -2.6727894537038626721070500e-01 3.0681452564649130954066436e-01 4.8770648920991216401787938e-01 -5.4642684950039366320595491e-01 4.8770648920991216401787938e-01 -5.4642684950039388525055983e-01 -8.3420684000845707339877322e-02 -6.8159503580131550193321743e-02
1.4180000000000001136868377e+02 -2.6292204336751295867813383e-01 3.1138340697952615609978011e-01 4.4487529664440222942900505e-01 -5.7534742168813179929998114e-01 4.4487529664440217391785382e-01 -5.7534742168813168827767868e-01 -1.0144960325112525878488157e-01 -6.3978368075677000126333382e-02
1.4194999999999998863131623e+02 -2.5905812175718578860283969e-01 3.1436268028457414747123266e-01 4.0050505731840008172284229e-01 -6.0078885284744987238525482e-01 4.0050505731840013723399352e-01 -6.0078885284744998340755728e-01 -1.1666562429357846264466048e-01 -6.0604834222162361212493664e-02
1.4209999999999999431565811e+02 -2.5415635094321276099549323e-01 3.1637098600921570445976272e-01 3.5570693172198608600353964e-01 -6.2270950753354381568271947e-01 3.5570693172198586395893471e-01 -6.2270950753354359363811454e-01 -1.2980915746760654516656075e-01 -5.6098333129372936201040289e-02
1.4225000000000000000000000e+02 -2.4723295170721426572413293e-01 3.1482546670204419880789715e-01 3.1025965989861647997827276e-01 -6.3954324301266363139717441e-01 3.1025965989861636895597030e-01 -6.3954324301266352037487195e-01 -1.4403766734759676504395998e-01 -5.0075330536732076680550563e-02
1.4240000000000000568434189e+02 -2.4124421902054477007126820e-01 3.1174032890722747080047839e-01 2.6542669574379029739930047e-01 -6.5323331881725232861413133e-01 2.6542669574379035291045170e-01 -6.5323331881725232861413133e-01 -1.5671825721841670109313327e-01 -4.0413451119819143730893529e-02
1.4255000000000001136868377e+02 -2.3681008682926096842180641e-01 3.0906323587328871083101944e-01 2.2046559502451018586199893e-01 -6.6543335759727773037752740e-01 2.2046559502451035239545263e-01 -6.6543335759727784139982987e-01 -1.6565295485216099957703761e-01 -2.9327878099480116785846562e-02
1.4269999999999998863131623e+02 -2.3212983199796341504672625e-01 3.0446942438774088346420399e-01 1.7552994023737319984057592e-01 -6.7359242503153826664430426e-01 1.7552994023737303330712223e-01 -6.7359242503153771153279195e-01 -1.7038941754367828429472809e-01 -1.6683355891237865165077636e-02
1.4284999999999999431565811e+02 -2.2714822330876088818385483e-01 2.9729179307842468205080877e-01 1.3384449565295608586268372e-01 -6.7828628854659245295266601e-01 1.3384449565295611361825934e-01 -6.7828628854659245295266601e-01 -1.6955951633933427635803071e-01 -3.9234458940205670096634805e-03
1.4300000000000000000000000e+02 -2.2284664949563751101813125e-01 2.8619538301621660902895883e-01 9.1941366775455973803232723e-02 -6.8327064937333947813868917e-01 9.1941366775456084825535186e-02 -6.8327064937333981120559656e-01 -1.6638945258575985053361990e-01 3.3138099706914829478687778e-03
1.4315000000000000568434189e+02 -2.2152522411197975160668250e-01 2.7638275722781169285724445e-01 4.6294959650032566078614593e-02 -6.8878367045979127514243601e-01 4.6294959650032461995206035e-02 -6.8878367045979116412013354e-01 -1.6251942209160977204085441e-01 1.3167088935528118917583917e-02
1.4330000000000001136868377e+02 -2.2361525588212008419652932e-01 2.6718992329214008574211903e-01 1.0967984336045831039816584e-04 -6.9010988160828856674555709e-01 1.0967984336044875586652081e-04 -6.9010988160828867776785955e-01 -1.5553475647499057088474217e-01 1.9453689671159426349822397e-02
1.4344999999999998863131623e+02 -2.2681025123297937629018861e-01 2.5590849802751070019013468e-01 -4.2389937494170713827568164e-02 -6.8500128291396367163912373e-01 -4.2389937494170699949780357e-02 -6.8500128291396378266142619e-01 -1.4805369326327075252258680e-01 2.3875172686799180088446093e-02
1.4359999999999999431565811e+02 -2.3112399845059794500912176e-01 2.4574455622008578581372262e-01 -8.3719804033142400379041703e-02 -6.7914289122237581075580692e-01 -8.3719804033142442012405127e-02 -6.7914289122237581075580692e-01 -1.3826397981006646742407895e-01 2.8999603066383685540108317e-02
1.4375000000000000000000000e+02 -2.3634483571157377523874743e-01 2.3943233339712227669693334e-01 -1.2841309881878432141988355e-01 -6.7491141855833380880369532e-01 -1.2841309881878432141988355e-01 -6.7491141855833380880369532e-01 -1.2645590061193395792216165e-01 3.0708097412286278204973655e-02
1.4390000000000000568434189e+02 -2.4348327898794999701870267e-01 2.3361632292860085025054673e-01 -1.7306745256746333683217642e-01 -6.6687349206826895819943957e-01 -1.7306745256746325356544958e-01 -6.6687349206826895819943957e-01 -1.1739478583153613311385044e-01 3.0653860270487241768133657e-02
1.4405000000000001136868377e+02 -2.5042787366326463294186055e-01 2.2662690300951837674148237e-01 -2.1444263914685005034677090e-01 -6.5459482135529167834420150e-01 -2.1444263914685005034677090e-01 -6.5459482135529167834420150e-01 -1.0826735816805509171611988e-01 2.9840135427486889907466860e-02
1.4419999999999998863131623e+02 -2.5773438654834696093232083e-01 2.2101156314412723213891354e-01 -2.5635738086340748020930391e-01 -6.4052238625644286607041522e-01 -2.5635738086340742469815268e-01 -6.4052238625644297709271768e-01 -9.8197953856642733461157491e-02 2.9980726102038592062459799e-02
1.4434999999999999431565811e+02 -2.6582834041883496301039713e-01 2.1946346489564783066583686e-01 -3.0144591535793102687890155e-01 -6.2528040393654626960540099e-01 -3.0144591535793091585659909e-01 -6.2528040393654626960540099e-01 -8.8209849300221174206448893e-02 3.2160107346339852907313173e-02
1.4450000000000000000000000e+02 -2.7392236091600991043648605e-01 2.2014070774098498661786039e-01 -3.4558775568360372565379635e-01 -6.0550103499393637118686229e-01 -3.4558775568360383667609881e-01 -6.0550103499393648220916475e-01 -7.5825864815416685327242874e-02 3.4762229213453066378747280e-02
1.4465000000000000568434189e+02 -2.7882860279250137880424631e-01 2.1817129637449880763533372e-01 -3.8492495408797111622334342e-01 -5.8109660230214033038720345e-01 -3.8492495408797128275679711e-01 -5.8109660230214044140950591e-01 -6.2340154423633734048770805e-02 3.5826124293472795534487574e-02
1.4480000000000001136868377e+02 -2.8340765010690316394459387e-01 2.1654011816580043259250488e-01 -4.2342564254242448518184005e-01 -5.5465544719097459314127718e-01 -4.2342564254242442967068882e-01 -5.5465544719097459314127718e-01 -4.7512414011625883625278277e-02 3.5322858045243904490106956e-02
1.4494999999999998863131623e+02 -2.8848913798781949946459235e-01 2.1907445568677363922915902e-01 -4.6442512016833936705495489e-01 -5.2487432869756467379573905e-01 -4.6442512016833914501034997e-01 -5.2487432869756467379573905e-01 -3.1308456676039056465477017e-02 3.6275505826207303516905966e-02
1.4509999999999999431565811e+02 -2.9349020241747353354710981e-01 2.2295650297482660917580688e-01 -5.0226318794340740758741504e-01 -4.9176228316946662966202553e-01 -5.0226318794340718554281011e-01 -4.9176228316946668517317676e-01 -1.5032248612415656172092149e-02 3.6758975832524402871381852e-02
1.4525000000000000000000000e+02 -2.9525138507293202660974885e-01 2.2230325182678750683962221e-01 -5.3037241827213499334447988e-01 -4.5557421061340169776698872e-01 -5.3037241827213499334447988e-01 -4.5557421061340191981159364e-01 1.4422869566130952501126217e-04 3.6241581894479513170637119e-02
1.4540000000000000568434189e+02 -2.9434044257134006628007228e-01 2.2348189610798790960544125e-01 -5.5886916528413332905245170e-01 -4.1886148427760316881318658e-01 -5.5886916528413332905245170e-01 -4.1886148427760311330203535e-01 1.6201067361335218242057721e-02 3.5167216973188752948686897e-02
1.4555000000000001136868377e+02 -2.9185835438113227890966073e-01 2.2758996417523089106360601e-01 -5.8890809586391390517690070e-01 -3.8063834861167988865560119e-01 -5.8890809586391379415459824e-01 -3.8063834861167999967790365e-01 3.4955213431790754796679721e-02 3.8113599024496860878663540e-02
1.4569999999999998863131623e+02 -2.8749468091254321011618345e-01 2.2710644835177262734760006e-01 -6.1704754069333012100884162e-01 -3.3824166477676409492403309e-01 -6.1704754069333000998653915e-01 -3.3824166477676398390173063e-01 5.8532828039306324108270729e-02 4.0115752551057731745132173e-02
1.4584999999999999431565811e+02 -2.8637215724983511311307893e-01 2.1916074367531529487607145e-01 -6.3528170788930593548826664e-01 -2.9453792938921347088765401e-01 -6.3528170788930582446596418e-01 -2.9453792938921363742110771e-01 8.3245921857597063309164298e-02 3.7277993034975948072329288e-02
1.4600000000000000000000000e+02 -2.8691097291045575268242374e-01 2.1191042244450952747314432e-01 -6.5053271635312126530692467e-01 -2.5105382285059651970016148e-01 -6.5053271635312159837383206e-01 -2.5105382285059663072246394e-01 1.0594910531005104215029888e-01 2.9619677373418661081583281e-02
1.4615000000000000568434189e+02 -2.9116279418719015481542556e-01 2.1002409881315273199042792e-01 -6.6942257663511950394052974e-01 -2.0682128899205992622611916e-01 -6.6942257663511950394052974e-01 -2.0682128899205987071496793e-01 1.2851054937970179947726024e-01 1.9548759398857192687293249e-02
1.4630000000000001136868377e+02 -2.9476330779902304435324822e-01 2.0960041803900311685460167e-01 -6.8476909544539221741388246e-01 -1.5944700173091796990831881e-01 -6.8476909544539255048078985e-01 -1.5944700173091808093062127e-01 1.4820950536448448953130708e-01 8.5156593697534518905278844e-03
1.4644999999999998863131623e+02 -2.9480768810974722349271815e-01 2.0550282023386956531396663e-01 -6.9119806117001370004970795e-01 -1.1192817971887324135504826e-01 -6.9119806117001358902740549e-01 -1.1192817971887317196610923e-01 1.6333110264858066718041130e-01 -1.7590596198366927060963150e-03
1.4659999999999999431565811e+02 -2.9493858746310291918391044e-01 2.0017115883757966021683217e-01 -6.9457266167492148767337312e-01 -6.5370182776214022513094903e-02 -6.9457266167492137665107066e-01 -6.5370182776214119657609558e-02 1.7865745034052427087090109e-01 -1.2638974650665362603474406e-02
1.4675000000000000000000000e+02 -2.9838065232498478529521435e-01 1.9874076182211045105141523e-01 -7.0111151060530008116700174e-01 -1.6421766165437959306139248e-02 -7.0111151060529997014469927e-01 -1.6421766165437751139322131e-02 1.9367177655259371071849728e-01 -2.7589706592578797095249854e-02
1.4690000000000000568434189e+02 -3.0281058453105014205419820e-01 1.9600688257511383882913947e-01 -7.0033732598372899769145761e-01 3.3455996583245294073716281e-02 -7.0033732598372899769145761e-01 3.3455996583245120601368683e-02 2.0488125680288926666605676e-01 -4.4262884693554979675944594e-02
1.4705000000000001136868377e+02 -3.0470818297221446968592318e-01 1.9047465651634987171547664e-01 -6.9233662259384054493693839e-01 7.8571569117602560461399719e-02 -6.9233662259384065595924085e-01 7.8571569117602532705824103e-02 2.0891659500158790696566768e-01 -5.8457409467573474837198688e-02
1.4719999999999998863131623e+02 -3.0728887090330847531305380e-01 1.8735787736755799004484402e-01 -6.8496134401978581163206172e-01 1.2412232738227529926788861e-01 -6.8496134401978570060975926e-01 1.2412232738227511885664711e-01 2.1010128976166392300584107e-01 -7.1784558207233437054917147e-02
1.4734999999999999431565811e+02 -3.1353607586629017589530122e-01 1.8839593487138706073835692e-01 -6.7803274610059893756641713e-01 1.7313391241914052876005314e-01 -6.7803274610059893756641713e-01 1.7313391241914061202677999e-01 2.0872484820706224684094821e-01 -8.5672123946903697144783507e-02
1.4750000000000000000000000e+02 -3.1786777753949302383063014e-01 1.9107365457135616626516139e-01 -6.6587422289407061093413631e-01 2.2282881792514866448051691e-01 -6.6587422289407061093413631e-01 2.2282881792514866448051691e-01 2.0538859496545627814079182e-01 -9.7306280252508550732137849e-02
1.4765000000000000568434189e+02 -3.1659643619811417281084687e-01 1.9219873086371622172841001e-01 -6.4715132858208901378560540e-01 2.6793834112204334418905205e-01 -6.4715132858208901378560540e-01 2.6793834112204323316674959e-01 1.9985069999010213193102459e-01 -1.0627834987466544536260926e-01
1.4780000000000001136868377e+02 -3.1287975409185952990753776e-01 1.9259969146223088198865980e-01 -6.2605341795791225045775263e-01 3.1177817395561119306890419e-01 -6.2605341795791225045775263e-01 3.1177817395561119306890419e-01 1.9174717108777206142633531e-01 -1.1659888389831775390437230e-01
1.4794999999999998863131623e+02 -3.1191003856108945324621118e-01 1.9470443737842826892325832e-01 -6.0439163970045284290932841e-01 3.5838294068680637272095169e-01 -6.0439163970045262086472349e-01 3.5838294068680648374325415e-01 1.8009106880945854878284251e-01 -1.2726679285195566238009235e-01
1.4809999999999999431565811e+02 -3.0947531229948566089404949e-01 1.9480034374857940759895314e-01 -5.7746656987834010799076623e-01 4.0314204861031310844765585e-01 -5.7746656987833999696846377e-01 4.0314204861031327498110954e-01 1.6520715998907667398931665e-01 -1.3670197044541415598573053e-01
1.4825000000000000000000000e+02 -3.0254615633203607583112671e-01 1.9009580932423508770057197e-01 -5.4298013633258812582482733e-01 4.4263583551764662527006067e-01 -5.4298013633258823684712979e-01 4.4263583551764645873660697e-01 1.4715839510445191673504439e-01 -1.4185067577504131830501422e-01
1.4840000000000000568434189e+02 -2.9692811919880762738799262e-01 1.8378531095014266627529764e-01 -5.0790646325804200689191248e-01 4.7881537047837685605600200e-01 -5.0790646325804200689191248e-01 4.7881537047837685605600200e-01 1.2560241904866303874754863e-01 -1.4644939971997034122708214e-01
1.4855000000000001136868377e+02 -2.9720786038379520821450797e-01 1.7822840247489191156660127e-01 -4.7346359544269256414139591e-01 5.1385690891182755901667178e-01 -4.7346359544269250863024467e-01 5.1385690891182722594976440e-01 1.0047757341100124750532530e-01 -1.5010854633549994274765993e-01
1.4869999999999998863131623e+02 -2.9812629183830879897598720e-01 1.7251167424832719587968199e-01 -4.3564665200058760863299767e-01 5.4554811812680314986323538e-01 -4.3564665200058760863299767e-01 5.4554811812680314986323538e-01 7.3104059117351571916998410e-02 -1.5079864024668448996280290e-01
1.4884999999999999431565811e+02 -2.9552547915643767595383906e-01 1.6559160552437288127514137e-01 -3.9369775117952104936946967e-01 5.7201979595569019121370502e-01 -3.9369775117952088283601597e-01 5.7201979595569030223600748e-01 4.1879175062110009231108876e-02 -1.4669718956032523626831221e-01
1.4900000000000000000000000e+02 -2.9395212416413929457092991e-01 1.5737154192759139625934495e-01 -3.5086000375850240340369623e-01 5.9565834054151434173718371e-01 -3.5086000375850262544830116e-01 5.9565834054151434173718371e-01 6.6362940757521068912971884e-03 -1.3662598666715383699532538e-01
1.4915000000000000568434189e+02 -2.9757839890260828763501877e-01 1.5067774497698921409849504e-01 -3.0943027460474886725094734e-01 6.1727931209700470649437420e-01 -3.0943027460474903378440104e-01 6.1727931209700470649437420e-01 -2.6105878231383945753396603e-02 -1.1830772610198228567135459e-01
1.4930000000000001136868377e+02 -3.0113097978393355003134957e-01 1.4485233437823002988764642e-01 -2.6693294768192021848562945e-01 6.3621142495929716709213153e-01 -2.6693294768192010746332699e-01 6.3621142495929716709213153e-01 -5.4137934788008892916799653e-02 -9.7116361857757640962951484e-02
1.4944999999999998863131623e+02 -3.0170950700313375891781220e-01 1.3879218165599777057295228e-01 -2.2241375960483639184772642e-01 6.5045356381280916568954353e-01 -2.2241375960483619755869711e-01 6.5045356381280861057803122e-01 -7.8789530052884956812242478e-02 -7.4290567506190396951382127e-02
1.4959999999999999431565811e+02 -3.0144402943972686825802043e-01 1.3256673284601158679940625e-01 -1.7698109139378745413573313e-01 6.6234729018858551352622044e-01 -1.7698109139378742638015751e-01 6.6234729018858540250391798e-01 -1.0193205110694397719228732e-01 -4.7040731294347978841408064e-02
1.4975000000000000000000000e+02 -3.0584798553047998215248526e-01 1.2604508351567034196705208e-01 -1.3365504761060198468669569e-01 6.7375748133057689059910444e-01 -1.3365504761060201244227130e-01 6.7375748133057722366601183e-01 -1.1805147315798225626792828e-01 -2.0763308713829461971123180e-02
1.4990000000000000568434189e+02 -3.0963350307132697647460873e-01 1.2001144397809788977316003e-01 -8.8096066034412362499850246e-02 6.8312160288096246407718581e-01 -8.8096066034412376377638054e-02 6.8312160288096235305488335e-01 -1.3223311504688931017348352e-01 2.7304124638179647077684820e-03
1.5005000000000001136868377e+02 -3.0915639398861799458373412e-01 1.1614619114310760494834796e-01 -3.9018201986528985858448948e-02 6.8676068021156333465171429e-01 -3.9018201986528999736236756e-02 6.8676068021156333465171429e-01 -1.4293401017018952936510345e-01 2.8425071974207481717566992e-02
1.5019999999999998863131623e+02 -3.0908998857713554375692411e-01 1.1100260866393643621741205e-01 8.5498540788488952557599987e-03 6.8572534800291273793249047e-01 8.5498540788487252528593530e-03 6.8572534800291284895479293e-01 -1.4894235834631044945730594e-01 5.3388108031180374346558182e-02
1.5034999999999999431565811e+02 -3.1310620193912674924519024e-01 1.0696692701549670445615448e-01 5.3847254188634112448408331e-02 6.8488868044808604018669485e-01 5.3847254188634258165180313e-02 6.8488868044808615120899731e-01 -1.5366198344732120983913148e-01 7.4793137555431460361532459e-02
1.5050000000000000000000000e+02 -3.1753070977718761414010373e-01 1.0379305152571020876006713e-01 1.0047730595158282929091342e-01 6.8097767723452296007025097e-01 1.0047730595158292643542808e-01 6.8097767723452307109255344e-01 -1.5509957423182393898564158e-01 9.4179546859363055810732135e-02
1.5065000000000000568434189e+02 -3.1840869898186624498137576e-01 1.0047280957093698838811235e-01 1.4955416683503583441527951e-01 6.7046273508711862199049847e-01 1.4955416683503588992643074e-01 6.7046273508711895505740586e-01 -1.5151260598400015378039996e-01 1.1154324758247075033423812e-01
1.5080000000000001136868377e+02 -3.1924321864483845567761477e-01 9.7428140896765699774384473e-02 1.9518404493463631377281331e-01 6.5607191674220877164458443e-01 1.9518404493463636928396454e-01 6.5607191674220888266688689e-01 -1.4697051569927988001751373e-01 1.2632712033185317102024214e-01
1.5094999999999998863131623e+02 -3.2097057404332351993048178e-01 9.4059614375218647541743167e-02 2.3881581044460079010782749e-01 6.4159245380185947471574082e-01 2.3881581044460079010782749e-01 6.4159245380185947471574082e-01 -1.4162029536443734856199228e-01 1.3643879327661451172915008e-01
1.5109999999999999431565811e+02 -3.2331727174877716857182008e-01 8.9483103982439471391074903e-02 2.8129458691443143258936743e-01 6.2346619318774321172327291e-01 2.8129458691443121054476251e-01 6.2346619318774276763406306e-01 -1.3599266041417698569482297e-01 1.4407972656067780103938958e-01
1.5125000000000000000000000e+02 -3.2436915061628263101667358e-01 8.6920568179459423152621866e-02 3.2382588370815446054962194e-01 6.0055582907874283105087443e-01 3.2382588370815423850501702e-01 6.0055582907874260900626950e-01 -1.2842194833738060366634670e-01 1.5136164119648182202482189e-01
1.5140000000000000568434189e+02 -3.2406139395098426669861169e-01 8.5261536522206540777979455e-02 3.6376508936481755096536972e-01 5.7409462909843689271127687e-01 3.6376508936481738443191603e-01 5.7409462909843700373357933e-01 -1.1816608821165874854131062e-01 1.5758372838493844847462810e-01
1.5155000000000001136868377e+02 -3.2502886096398891924152963e-01 8.2398974703722246970549747e-02 4.0050987744849875227259872e-01 5.4775739492987562950787606e-01 4.0050987744849880778374995e-01 5.4775739492987562950787606e-01 -1.0729664946407842240905239e-01 1.6012129754730805575313468e-01
1.5169999999999998863131623e+02 -3.2524934834679214423758253e-01 7.8865907365282872376610612e-02 4.3595611153360847023208180e-01 5.1942655422201000625648248e-01 4.3595611153360852574323303e-01 5.1942655422201000625648248e-01 -9.5033351871821186707123275e-02 1.6040463906141436134511480e-01
1.5184999999999999431565811e+02 -3.2371299307168449610472294e-01 7.6545591397540468925342338e-02 4.7041033737815024506900841e-01 4.8803273724967999314117151e-01 4.7041033737815013404670594e-01 4.8803273724967999314117151e-01 -7.8845515959141770911955405e-02 1.5856423102684719106392208e-01
1.5200000000000000000000000e+02 -3.2152084106776646077463511e-01 7.2360356268684700165039203e-02 5.0172002440032192893681895e-01 4.5399477660697945546885990e-01 5.0172002440032192893681895e-01 4.5399477660697923342425497e-01 -6.2238029567930709673451162e-02 1.5207899938790503391317088e-01
1.5215000000000000568434189e+02 -3.2163630561889577919032490e-01 6.7535273451456573345907941e-02 5.3119423794768438895630425e-01 4.1970965903808599151147973e-01 5.3119423794768449997860671e-01 4.1970965903808610253378220e-01 -4.9107202450564373108488070e-02 1.4554365569919541778531880e-01
1.5230000000000001136868377e+02 -3.2225508405988378957118812e-01 6.2132147553697697484054174e-02 5.5927141569290694800287156e-01 3.8312229697513972004330185e-01 5.5927141569290672595826663e-01 3.8312229697513977555445308e-01 -3.4105384366959444475408958e-02 1.3772394771067567043054680e-01
1.5244999999999998863131623e+02 -3.2227811769789005413855421e-01 5.8405021835213455361213164e-02 5.8474561970703398117166216e-01 3.4335707190097208840739995e-01 5.8474561970703398117166216e-01 3.4335707190097208840739995e-01 -1.7118783583951441285009309e-02 1.2764918826208773716679445e-01
1.5259999999999999431565811e+02 -3.2175727151785399327010850e-01 5.5150930585871421607535581e-02 6.0728092971885583306601575e-01 3.0213430311625311119883008e-01 6.0728092971885627715522560e-01 3.0213430311625322222113255e-01 1.5193486652375493006772444e-04 1.1600037239512475673031133e-01
1.5275000000000000000000000e+02 -3.2103756420494200529702766e-01 5.0159926622312916988377651e-02 6.2747864373876571786325940e-01 2.6141559807175002161372390e-01 6.2747864373876582888556186e-01 2.6141559807175013263602636e-01 1.7009758461122605199822289e-02 1.0482989793701434633188541e-01
1.5290000000000000568434189e+02 -3.2010889477578852169159518e-01 4.4331524501983105013280806e-02 6.4576596659635732144977283e-01 2.1826204429328330269832747e-01 6.4576596659635765451668021e-01 2.1826204429328341372062994e-01 3.5615150094043479533922891e-02 9.0501126090425376702341964e-02
1.5305000000000001136868377e+02 -3.2026624732707043019530602e-01 3.9579567988806546585678348e-02 6.6161602593238721947699332e-01 1.7180277608148805668086823e-01 6.6161602593238688641008594e-01 1.7180277608148794565856576e-01 5.4450269799572868778536616e-02 7.1805754358646181612080284e-02
1.5319999999999998863131623e+02 -3.2030839037538649805014757e-01 3.3555322910636786737370585e-02 6.7273892810494839711310533e-01 1.2452530882616484608771401e-01 6.7273892810494839711310533e-01 1.2452530882616477669877497e-01 7.1647156459515123905212874e-02 4.9757958693994353005507492e-02
1.5334999999999999431565811e+02 -3.2282846772567236337536656e-01 2.7797053626795416303441044e-02 6.8126352188902661310976328e-01 7.6516877588708551161111870e-02 6.8126352188902650208746081e-01 7.6516877588708634427838717e-02 8.4494898926554734552851755e-02 2.7869202707135207197630677e-02
1.5350000000000000000000000e+02 -3.2653776514953825049758507e-01 2.2623022575395584921054137e-02 6.8549386882067342430246981e-01 2.8022937846626131547234095e-02 6.8549386882067386839167966e-01 2.8022937846626173180597519e-02 9.6806253189689939198103730e-02 4.8026123133776072240963551e-03
1.5365000000000000568434189e+02 -3.2885237228443059409599414e-01 1.8750891990082136501216681e-02 6.8478786515415845936871619e-01 -2.1213514403015047704581519e-02 6.8478786515415790425720388e-01 -2.1213514403014995662877240e-02 1.0455289937781579723274916e-01 -2.1254563731450324542970876e-02
1.5380000000000001136868377e+02 -3.3073284737489649920405554e-01 1.6577913900999361601629190e-02 6.8007185537857084423052356e-01 -6.8772057724209134654813624e-02 6.8007185537857117729743095e-01 -6.8772057724209134654813624e-02 1.0722805800884849247722741e-01 -4.6970335860490729229521634e-02
1.5394999999999998863131623e+02 -3.3342626813303966049062410e-01 1.3986167384040869288153175e-02 6.7391372098348500951914275e-01 -1.1635704125843052136879407e-01 6.7391372098348500951914275e-01 -1.1635704125843059075773311e-01 1.0509580192165846046492561e-01 -6.9575136255184674705098757e-02
1.5409999999999999431565811e+02 -3.3608104966638324695438200e-01 1.1682402922601239914079940e-02 6.6396790709827979704016343e-01 -1.6297546622151035111691897e-01 6.6396790709827968601786097e-01 -1.6297546622151035111691897e-01 1.0066460566846581470290545e-01 -8.7716698533827797135131732e-02
1.5425000000000000000000000e+02 -3.3649390565706382982824607e-01 1.1328706610849934022233754e-02 6.4931795293278526948199669e-01 -2.0796203158769724361754072e-01 6.4931795293278515845969423e-01 -2.0796203158769707708408703e-01 9.4832162836895952939819665e-02 -1.0482427063743697537301358e-01
1.5440000000000000568434189e+02 -3.3571000397380351687459665e-01 1.1376007532048856840667383e-02 6.3283035551620558933905158e-01 -2.5077899603286091245735179e-01 6.3283035551620558933905158e-01 -2.5077899603286085694620056e-01 8.5224398259412054157380112e-02 -1.1943443942790490930327962e-01
1.5455000000000001136868377e+02 -3.3520037939164520901513811e-01 1.0014276153598816732070986e-02 6.1556364711382771659486934e-01 -2.9361387787617360123348931e-01 6.1556364711382771659486934e-01 -2.9361387787617360123348931e-01 7.3768385703437910905222452e-02 -1.2873112255903523815092626e-01
1.5469999999999998863131623e+02 -3.3395147352811671570549379e-01 7.6674460458140414331751344e-03 5.9479526583018316188145036e-01 -3.3559664148400880634426358e-01 5.9479526583018293983684543e-01 -3.3559664148400869532196111e-01 6.3950663648429231789016569e-02 -1.3556849824259306624973931e-01
1.5484999999999999431565811e+02 -3.3068915662946879452377402e-01 6.0036706649320148443393919e-03 5.6930627877830985994478397e-01 -3.7697588405081328133405805e-01 5.6930627877831008198938889e-01 -3.7697588405081344786751174e-01 5.2367288491721342147400264e-02 -1.4074120620981411811101225e-01
1.5500000000000000000000000e+02 -3.2801609634579248497843196e-01 3.5232910346020551717316494e-03 5.4066453722554308480852114e-01 -4.1519687662132365169043169e-01 5.4066453722554286276391622e-01 -4.1519687662132354066812923e-01 3.9822518317037564061777744e-02 -1.4157351792022362935163926e-01
1.5515000000000000568434189e+02 -3.2741355009681438748003757e-01 -9.0143064237058201371155519e-04 5.1180966914443393189770859e-01 -4.5059815471513375850776129e-01 5.1180966914443359883080120e-01 -4.5059815471513353646315636e-01 2.5869634891983246671731678e-02 -1.4171104225705632995158112e-01
1.5530000000000001136868377e+02 -3.2726173384317169823276572e-01 -4.7529448146091668458979029e-03 4.8063200776169706651685942e-01 -4.8538641790729175617968849e-01 4.8063200776169695549455696e-01 -4.8538641790729164515738603e-01 9.7518158462224363569603724e-03 -1.3699986211522974244303441e-01
1.5544999999999998863131623e+02 -3.2509407085871050435699203e-01 -5.2060279314078972134893775e-03 4.4482325325391697257160217e-01 -5.1848643005954575535554341e-01 4.4482325325391680603814848e-01 -5.1848643005954564433324094e-01 -3.0815013455755546623038299e-03 -1.2736471128046111811471519e-01
1.5559999999999999431565811e+02 -3.2107654217930636786348941e-01 -6.1469423050378446671260235e-03 4.0736630349902624992353140e-01 -5.4872350366923861031409615e-01 4.0736630349902608339007770e-01 -5.4872350366923872133639861e-01 -1.5460812533229048582050780e-02 -1.1654029572321036867244004e-01
1.5575000000000000000000000e+02 -3.1682302533060952010046663e-01 -9.8391393829076190247207023e-03 3.6955003454196033718659464e-01 -5.7692590003548405164224278e-01 3.6955003454196050372004834e-01 -5.7692590003548427368684770e-01 -2.9660531005988789721161680e-02 -1.0335593056430807112899828e-01
1.5590000000000000568434189e+02 -3.1244350039604928959136032e-01 -1.4657647481272892409087660e-02 3.2895790259203833150181140e-01 -6.0366670969878577501788186e-01 3.2895790259203810945720647e-01 -6.0366670969878577501788186e-01 -4.1941012825241222317096401e-02 -8.4876350817137596882488992e-02
1.5605000000000001136868377e+02 -3.0556031592467175483918140e-01 -1.9055846776365945038911320e-02 2.8247342526427793307775005e-01 -6.2626323836186437166162477e-01 2.8247342526427776654429636e-01 -6.2626323836186426063932231e-01 -4.9075172176981138316698150e-02 -6.3767949510199414819844321e-02
1.5619999999999998863131623e+02 -2.9916585122360450643697050e-01 -2.5194612961891585389828663e-02 2.3489360233082534623605397e-01 -6.4382885172064707735017919e-01 2.3489360233082526296932713e-01 -6.4382885172064707735017919e-01 -5.4455989899010653898514533e-02 -4.1901801411513568684785724e-02
1.5634999999999999431565811e+02 -2.9495634165009848581817664e-01 -3.6165498279778426904407240e-02 1.8873415256785769367198213e-01 -6.5804084608541157930261534e-01 1.8873415256785766591640652e-01 -6.5804084608541146828031287e-01 -5.8011457708147758094430202e-02 -1.9029248614307769926767833e-02
1.5650000000000000000000000e+02 -2.9221874758416510609038141e-01 -4.7793901562555939077636680e-02 1.4108800916570418682027821e-01 -6.6977843875898557257642096e-01 1.4108800916570418682027821e-01 -6.6977843875898557257642096e-01 -5.9669638220700996211753875e-02 5.5188424613446997873955624e-03
1.5665000000000000568434189e+02 -2.9125286412370032795848829e-01 -5.6014831174939577751459296e-02 9.0625143623227447098322784e-02 -6.7759814080498503852112435e-01 9.0625143623227474853898400e-02 -6.7759814080498514954342681e-01 -5.6313339077280748223852669e-02 3.1228882726893222171460351e-02
1.5680000000000001136868377e+02 -2.9195296855507796296436140e-01 -6.3107114211523110403057046e-02 3.9812467898839694335766382e-02 -6.7981945234500396058052729e-01 3.9812467898839742908023709e-02 -6.7981945234500396058052729e-01 -4.8096011276424661951001127e-02 5.5206998314388154580623080e-02
1.5694999999999998863131623e+02 -2.9220793877369383162445615e-01 -7.2544353962412475023135983e-02 -7.2870069167750364802493834e-03 -6.7791163086538930304669748e-01 -7.2870069167750564295693572e-03 -6.7791163086538896997979009e-01 -3.9691995937795029880668096e-02 7.7622607256354253513208619e-02
1.5709999999999999431565811e+02 -2.9176021252248190984701637e-01 -8.0755316465915702450750757e-02 -5.5039367370773327470256930e-02 -6.7358929184961313652024728e-01 -5.5039367370773334409150834e-02 -6.7358929184961302549794482e-01 -2.7366184366149685219804510e-02 9.8662029309121823672512619e-02
1.5725000000000000000000000e+02 -2.9131332851318814114449651e-01 -8.7506104381235516598280810e-02 -1.0372255385982259712207565e-01 -6.6631854435539961123424746e-01 -1.0372255385982261099986346e-01 -6.6631854435539961123424746e-01 -1.0730553255213458319072828e-02 1.1523082615059684896685610e-01
1.5740000000000000568434189e+02 -2.9061744903170427800631614e-01 -9.4284592070088601989397148e-02 -1.5022443102467530895438586e-01 -6.5512497615720144406026293e-01 -1.5022443102467528119881024e-01 -6.5512497615720144406026293e-01 5.3467354841417180644214113e-03 1.2850505016725075058126038e-01
1.5755000000000001136868377e+02 -2.8973745650948579122285764e-01 -1.0379209333640510015683844e-01 -1.9261936749671471069689233e-01 -6.4068727259722979550105038e-01 -1.9261936749671473845246794e-01 -6.4068727259722990652335284e-01 2.2028569053428578849995745e-02 1.3993295960111276632353849e-01
1.5769999999999998863131623e+02 -2.8967921912359451130924981e-01 -1.1405588778219986900719363e-01 -2.3377188527285475139194659e-01 -6.2399053218112432439568238e-01 -2.3377188527285477914752221e-01 -6.2399053218112443541798484e-01 3.9452995125693585132253816e-02 1.4711691736471455005386133e-01
1.5784999999999999431565811e+02 -2.9115859144409728109792468e-01 -1.2335227502140654054496594e-01 -2.7653929825713458034996961e-01 -6.0619616687530464282929188e-01 -2.7653929825713446932766715e-01 -6.0619616687530453180698942e-01 5.7069342575083892299403487e-02 1.5006697541320787592233899e-01
1.5800000000000000000000000e+02 -2.9337291394363868013428487e-01 -1.3138382590519648296378818e-01 -3.1812459699829342962829060e-01 -5.8414232066306281954126689e-01 -3.1812459699829354065059306e-01 -5.8414232066306281954126689e-01 7.3278292692075572278831430e-02 1.5066442257514123248540727e-01
1.5815000000000000568434189e+02 -2.9489286536474140776320496e-01 -1.4019772777718741973984606e-01 -3.5520227935178050326925359e-01 -5.5895037320451745888050255e-01 -3.5520227935178061429155605e-01 -5.5895037320451768092510747e-01 8.8487672140695333711235548e-02 1.4959504196229092554126794e-01
1.5830000000000001136868377e+02 -2.9670829864440179113316276e-01 -1.4803743809272157383460922e-01 -3.8992863217154838384459481e-01 -5.3277956042706009487375240e-01 -3.8992863217154821731114112e-01 -5.3277956042705998385144994e-01 1.0254343356782780194436100e-01 1.4413899161625545741749477e-01
1.5844999999999998863131623e+02 -3.0221462740065518914889253e-01 -1.5419371924513042282356423e-01 -4.2535708071273975461323857e-01 -5.0689080439302613978469481e-01 -4.2535708071273969910208734e-01 -5.0689080439302602876239234e-01 1.1338605224454297026870364e-01 1.3633511113532170710982427e-01
1.5859999999999999431565811e+02 -3.0545552881056886596056188e-01 -1.5814641672274495909356062e-01 -4.6104638603917624806172171e-01 -4.7674924491040493457205685e-01 -4.6104638603917630357287294e-01 -4.7674924491040476803860315e-01 1.2317486047854249442412566e-01 1.2680261630185560295380753e-01
1.5875000000000000000000000e+02 -3.0544208170478864827757093e-01 -1.6194471220459583093997935e-01 -4.9273824476753580459131854e-01 -4.4174685479623065909038360e-01 -4.9273824476753569356901608e-01 -4.4174685479623077011268606e-01 1.2968805963589791208079305e-01 1.1854961602116328989175997e-01
1.5890000000000000568434189e+02 -3.0306512706919785937742517e-01 -1.6625059842949740929185509e-01 -5.2046432919365637204123232e-01 -4.0540429483829093504354546e-01 -5.2046432919365637204123232e-01 -4.0540429483829115708815038e-01 1.3687017414521182590014803e-01 1.0684092317135981953235557e-01
1.5905000000000001136868377e+02 -3.0151442080063373119003245e-01 -1.7273396942446481161503868e-01 -5.4808333405537690286024599e-01 -3.6986958960881977098722473e-01 -5.4808333405537701388254845e-01 -3.6986958960881965996492227e-01 1.4285620350400121680856103e-01 9.2091096575687092506967701e-02
1.5919999999999998863131623e+02 -3.0009112515142982724469789e-01 -1.8134380873817076973431028e-01 -5.7289838189069430818278761e-01 -3.3087443482797029847830572e-01 -5.7289838189069419716048515e-01 -3.3087443482797018745600326e-01 1.4562214967442144164522233e-01 7.5629814194981076491686167e-02
1.5934999999999999431565811e+02 -2.9969402321560678625900209e-01 -1.8908269006416983382123931e-01 -5.9218861196051908457604895e-01 -2.8799181973106813270391058e-01 -5.9218861196051919559835142e-01 -2.8799181973106818821506181e-01 1.4244906042730789974548600e-01 5.7531080052006779157469651e-02
1.5950000000000000000000000e+02 -2.9923215759100518784663336e-01 -1.9659582086122873167965963e-01 -6.0754397864658993277942045e-01 -2.4496224547117359526815505e-01 -6.0754397864658948869021060e-01 -2.4496224547117337322355013e-01 1.3682099524458682382466179e-01 4.2024046328876282774267281e-02
1.5965000000000000568434189e+02 -2.9988200539114462372936032e-01 -2.0594715195009327679542821e-01 -6.2308777238148171928600050e-01 -2.0381020436510594029400067e-01 -6.2308777238148171928600050e-01 -2.0381020436510596804957629e-01 1.3074709727732014563628127e-01 2.5481907838361576162933275e-02
1.5980000000000001136868377e+02 -3.0022257198463730976101260e-01 -2.1562870334920497539243911e-01 -6.3654737649180204162036034e-01 -1.6007602516169192052863934e-01 -6.3654737649180237468726773e-01 -1.6007602516169192052863934e-01 1.2233357541866754503168124e-01 9.2029056067000451768489455e-03
1.5994999999999998863131623e+02 -3.0093573152834229844643232e-01 -2.2510424503623566172549886e-01 -6.4422314120432455641918068e-01 -1.1358115138927661613710285e-01 -6.4422314120432433437457576e-01 -1.1358115138927665777046627e-01 1.1375636582327355861288254e-01 -7.7924084141551136495351670e-03
1.6009999999999999431565811e+02 -3.0293098480683305906424607e-01 -2.3540381494490839053845832e-01 -6.4670532380328682453551892e-01 -6.8132903147535395227407662e-02 -6.4670532380328693555782138e-01 -6.8132903147535395227407662e-02 1.0280404964161958536461583e-01 -2.7945481820688150564890861e-02
1.6025000000000000000000000e+02 -3.0660717972351425597565822e-01 -2.4611033379533261977734071e-01 -6.4870144141696617356984689e-01 -2.5347844263247008844697206e-02 -6.4870144141696584050293950e-01 -2.5347844263246998436356350e-02 8.5904040083678578909598400e-02 -4.9422681447143873567640071e-02
1.6040000000000000568434189e+02 -3.1063748356097820035870427e-01 -2.5779969910587458015172047e-01 -6.4825092623389102275410778e-01 1.9636833342787627515457771e-02 -6.4825092623389102275410778e-01 1.9636833342787613637669963e-02 6.3239460534375999123390955e-02 -6.6481261350856926672925340e-02
1.6055000000000001136868377e+02 -3.1592071713570823998651349e-01 -2.6824122409547096479442985e-01 -6.4208843861537467923028544e-01 6.5539967418061020887343204e-02 -6.4208843861537456820798297e-01 6.5539967418061020887343204e-02 4.0155384339207830790563492e-02 -7.9482994473858037398628085e-02
1.6069999999999998863131623e+02 -3.2324972280191832663120977e-01 -2.7892503744542984644994021e-01 -6.3283037222314986181004315e-01 1.0758074466191676343829187e-01 -6.3283037222314975078774069e-01 1.0758074466191677731607967e-01 1.6311339267560669152867803e-02 -9.1465114608319283973081326e-02
1.6084999999999999431565811e+02 -3.3179816383214266739543064e-01 -2.8820482828878701830888076e-01 -6.2273054018038320744921066e-01 1.4771884456931533291523806e-01 -6.2273054018038309642690820e-01 1.4771884456931533291523806e-01 -8.8341066664220577187016659e-03 -1.0194987899940240183571660e-01
1.6100000000000000000000000e+02 -3.4108532502282351561717633e-01 -2.9796375816380893386536854e-01 -6.1108057181723074435808485e-01 1.8798088132904219871299745e-01 -6.1108057181723085538038731e-01 1.8798088132904225422414868e-01 -3.5346949809115547902482746e-02 -1.0905510229279109790656577e-01
1.6115000000000000568434189e+02 -3.5281430741938235584598260e-01 -3.0531220698597366647319973e-01 -5.9592740881693229137994194e-01 2.2949361651975846987383534e-01 -5.9592740881693251342454687e-01 2.2949361651975860865171342e-01 -6.1881402702625661060853446e-02 -1.1365634930227495880128430e-01
1.6130000000000001136868377e+02 -3.6623527435215030845228057e-01 -3.1121999611336648161596941e-01 -5.7665771292629286470798888e-01 2.7002925635462993181334923e-01 -5.7665771292629286470798888e-01 2.7002925635462993181334923e-01 -8.9399212387589743755711424e-02 -1.1408954837838275464534377e-01
1.6144999999999998863131623e+02 -3.7967035618030814392298566e-01 -3.1479156656264623004304326e-01 -5.5481132682111600207264246e-01 3.0612871748361458745790742e-01 -5.5481132682111600207264246e-01 3.0612871748361469848020988e-01 -1.1021167059879857785809065e-01 -1.1169440180657334849012585e-01
1.6159999999999999431565811e+02 -3.9224683748888211631822287e-01 -3.1578464118514582015251335e-01 -5.3319799973627135525333642e-01 3.3943965698600159219822103e-01 -5.3319799973627124423103396e-01 3.3943965698600159219822103e-01 -1.2806433971262071169761043e-01 -1.0983318279258669214470956e-01
1.6175000000000000000000000e+02 -4.0484209739905091529621473e-01 -3.1362828481901938726394974e-01 -5.1006404539395289177150516e-01 3.7383686446785874268883276e-01 -5.1006404539395289177150516e-01 3.7383686446785874268883276e-01 -1.4655142874828364085715293e-01 -1.0797290017050809041165849e-01
1.6190000000000000568434189e+02 -4.1689151547954239607207683e-01 -3.1054613953290960415287714e-01 -4.8312274073038441457583758e-01 4.0678721025164205071789070e-01 -4.8312274073038408150893019e-01 4.0678721025164177316213454e-01 -1.6295156084821113551264204e-01 -1.0450794853132591710753729e-01
1.6205000000000001136868377e+02 -4.2661487847058382483211858e-01 -3.0502452210353281358834465e-01 -4.5544693254581214425513735e-01 4.3620601814277321084389882e-01 -4.5544693254581214425513735e-01 4.3620601814277298879929390e-01 -1.7551930938253265668258507e-01 -1.0158992392674320859313752e-01
1.6219999999999998863131623e+02 -4.3387440129776988495535761e-01 -2.9824471434676980141631475e-01 -4.2805230196550475563199711e-01 4.6560210899657239469462411e-01 -4.2805230196550458909854342e-01 4.6560210899657222816117041e-01 -1.8702068522337375600095299e-01 -9.9197925537814743424114283e-02
1.6234999999999999431565811e+02 -4.3933468452825186201238239e-01 -2.9145192177788631360257909e-01 -3.9910895262158052609891001e-01 4.9646630747517317416850346e-01 -3.9910895262158063712121248e-01 4.9646630747517328519080593e-01 -1.9826742149458664865591118e-01 -9.7533813016790510408426940e-02
1.6250000000000000000000000e+02 -4.4284722114691793537488707e-01 -2.8340010330886589162702194e-01 -3.6614811001494940168043968e-01 5.2625716825705526336065532e-01 -3.6614811001494945719159091e-01 5.2625716825705526336065532e-01 -2.0980518140373338731308195e-01 -9.4724164733188426223975398e-02
1.6265000000000000568434189e+02 -4.4189425441579327502594765e-01 -2.7561367650276979990309201e-01 -3.2909344682992491826212245e-01 5.5313043726245769704519262e-01 -3.2909344682992491826212245e-01 5.5313043726245769704519262e-01 -2.1862953076668881213784346e-01 -9.1063399872782946342653076e-02
1.6280000000000001136868377e+02 -4.3794549053106590630335404e-01 -2.7052620209947786378279488e-01 -2.8971491660798659451003800e-01 5.7817556386923196765081912e-01 -2.8971491660798648348773554e-01 5.7817556386923163458391173e-01 -2.2545866704535080793370128e-01 -8.6533976675456064642233400e-02
1.6294999999999998863131623e+02 -4.3375275087892345426965335e-01 -2.6901116498428762069394793e-01 -2.4708174450649297848592312e-01 6.0146134656315619615440937e-01 -2.4708174450649300624149873e-01 6.0146134656315630717671183e-01 -2.3463962690273751365843680e-01 -8.1138212837651171871478084e-02
1.6309999999999999431565811e+02 -4.3006639349601438748749160e-01 -2.7113328244366780017671203e-01 -2.0044190010867402040872776e-01 6.1977632776995339458636636e-01 -2.0044190010867410367545460e-01 6.1977632776995361663097128e-01 -2.4267360801311368967425608e-01 -6.9046851533865319372473834e-02
1.6325000000000000000000000e+02 -4.2640271241378230326901644e-01 -2.7509354324614654352387788e-01 -1.5245288196623854592992586e-01 6.3062092033358929654696112e-01 -1.5245288196623851817435025e-01 6.3062092033358907450235620e-01 -2.4436686563693188478652019e-01 -5.4906910761534560849739250e-02
1.6340000000000000568434189e+02 -4.2484628557925219194402189e-01 -2.8171810426995869125477157e-01 -1.0676836789349980483265767e-01 6.3792066507842803968486578e-01 -1.0676836789349977707708206e-01 6.3792066507842770661795839e-01 -2.4095804104804496859060237e-01 -3.9468688221022368844970174e-02
1.6355000000000001136868377e+02 -4.2704941908658761162698170e-01 -2.9024774509151568535614274e-01 -5.9956052746077459492113348e-02 6.4305149988300891461534547e-01 -5.9956052746077438675431637e-02 6.4305149988300902563764794e-01 -2.3354431995350549700063425e-01 -2.1838729792606637741814168e-02
1.6369999999999998863131623e+02 -4.3329301895948452161277942e-01 -2.9898259595308046554507087e-01 -1.3459460614197536060254734e-02 6.4301940695701298444930671e-01 -1.3459460614197497896338263e-02 6.4301940695701287342700425e-01 -2.2090008509701195005270336e-01 -4.9642928792281082114867807e-03
1.6384999999999999431565811e+02 -4.4305236674474512970078877e-01 -3.0705653199578070156050558e-01 3.1491570483175274075549055e-02 6.3796433822459952533989735e-01 3.1491570483175274075549055e-02 6.3796433822459963636219982e-01 -2.0437768340487327822785346e-01 8.5855341424538947348032991e-03
1.6400000000000000000000000e+02 -4.5519508234660793766224174e-01 -3.1164523004642441517120233e-01 7.1589598514167379628148069e-02 6.3120100440743454051073513e-01 7.1589598514167476772662724e-02 6.3120100440743487357764252e-01 -1.8740508308000616843891351e-01 2.4133667212632808202199541e-02
1.6415000000000000568434189e+02 -4.6717314958007122305261305e-01 -3.1215537838431123285332092e-01 1.1175444189705162345571665e-01 6.2335190558292807860851781e-01 1.1175444189705159570014104e-01 6.2335190558292785656391288e-01 -1.6493177268745454200349343e-01 4.0071914718899828700138244e-02
1.6430000000000001136868377e+02 -4.7930866771209174048706814e-01 -3.1087111891084939774287932e-01 1.5052168034134080776276221e-01 6.1320765487148731764932563e-01 1.5052168034134086327391344e-01 6.1320765487148731764932563e-01 -1.4087790144847606166322862e-01 5.2578816378145334931026866e-02
1.6444999999999998863131623e+02 -4.9348682181446434924509958e-01 -3.0734283355091812639514615e-01 1.9160540070900028419842442e-01 6.0083393841596555162709592e-01 1.9160540070900014542054635e-01 6.0083393841596544060479346e-01 -1.1346994026066724303714039e-01 6.2818829526848696254148763e-02
1.6459999999999999431565811e+02 -5.0717211112623650226538530e-01 -2.9991280345875048762849246e-01 2.2829092837585870934269394e-01 5.8563601100543749566895713e-01 2.2829092837585857056481586e-01 5.8563601100543705157974728e-01 -8.8425117596083194215772494e-02 7.2898308711071974075323965e-02
1.6475000000000000000000000e+02 -5.1714672684872575736392264e-01 -2.8985911781299489309304818e-01 2.6184501541409765934531606e-01 5.6959421324550352228044403e-01 2.6184501541409777036761852e-01 5.6959421324550330023583911e-01 -6.0775804920751581861271262e-02 8.6539907556202555483082506e-02
1.6490000000000000568434189e+02 -5.2396740723693402408400743e-01 -2.7809646771064067127809949e-01 2.9747491689702304507036956e-01 5.5628335839520670624835930e-01 2.9747491689702310058152079e-01 5.5628335839520681727066176e-01 -2.7622241659299301419494554e-02 9.8060144425132972356706773e-02
1.6505000000000001136868377e+02 -5.2900902717101794259235703e-01 -2.6658290973475262664038610e-01 3.3272771204136902811754339e-01 5.3721908166114729077378342e-01 3.3272771204136902811754339e-01 5.3721908166114717975148096e-01 3.8354799537677342069486031e-03 1.0731113883409319764705714e-01
1.6519999999999998863131623e+02 -5.3246995250518280862195297e-01 -2.5444823740433664127635893e-01 3.6766851334821959440546379e-01 5.1464832844159957847551823e-01 3.6766851334821942787201010e-01 5.1464832844159957847551823e-01 3.6334360113857752661026268e-02 1.1434847406638652678179113e-01
1.6534999999999999431565811e+02 -5.3313070194485134845052698e-01 -2.4372932423381879485368984e-01 4.0241353851986533252116374e-01 4.9402039165273364806907352e-01 4.0241353851986522149886127e-01 4.9402039165273353704677106e-01 7.0930794849656100820034510e-02 1.2034364029869522305649099e-01
1.6550000000000000000000000e+02 -5.3180497805728388360790859e-01 -2.3334595568509158836079109e-01 4.3597815297220132713107432e-01 4.7079837098590898714078889e-01 4.3597815297220121610877186e-01 4.7079837098590898714078889e-01 1.0641677413675902641454485e-01 1.2355702348470454232653992e-01
1.6565000000000000568434189e+02 -5.3094505235005928778235784e-01 -2.2435720782566748177089266e-01 4.7001000722074165460995232e-01 4.4227767366922915437399411e-01 4.7001000722074182114340601e-01 4.4227767366922920988514534e-01 1.3916268214677909864640526e-01 1.2332839572019829721405415e-01
1.6580000000000001136868377e+02 -5.2982685000447538037349204e-01 -2.1489381428263379381071729e-01 5.0389844998174215806585607e-01 4.1076994790874715723916211e-01 5.0389844998174238011046100e-01 4.1076994790874732377261580e-01 1.7094725663963453166083184e-01 1.2402563302397237587904044e-01
1.6594999999999998863131623e+02 -5.2559280569939104132970442e-01 -2.0543797842789118801576365e-01 5.3464692238118527445323025e-01 3.7686408690809797272791570e-01 5.3464692238118538547553271e-01 3.7686408690809786170561324e-01 2.0315225355120500316807863e-01 1.1893289771746017036146981e-01
1.6609999999999999431565811e+02 -5.1894796177014823612694272e-01 -1.9681685636113904758204285e-01 5.6647188913356449901925771e-01 3.3984588666142401258696282e-01 5.6647188913356483208616510e-01 3.3984588666142401258696282e-01 2.3159500627877319112180032e-01 1.1185965233037170607488520e-01
1.6625000000000000000000000e+02 -5.1386381545822956695701578e-01 -1.8738999599188047029407755e-01 5.9325632990267751498691950e-01 2.9326432688885595290173569e-01 5.9325632990267740396461704e-01 2.9326432688885600841288692e-01 2.5434767902881039169926680e-01 1.0023560328376501793457010e-01
1.6640000000000000568434189e+02 -5.0575248757273760791264294e-01 -1.8405392363570874381117903e-01 6.1836971155197895111399475e-01 2.4698923751348453303755548e-01 6.1836971155197895111399475e-01 2.4698923751348453303755548e-01 2.7880881375160199153739882e-01 8.9156536363542329692855049e-02
1.6655000000000001136868377e+02 -5.0290477680378897762381030e-01 -1.7947465984976429531627673e-01 6.3999849717079304589617550e-01 2.0389062403414792701283886e-01 6.3999849717079304589617550e-01 2.0389062403414792701283886e-01 2.9299283602046871655133486e-01 6.9020827200491199904242023e-02
1.6669999999999998863131623e+02 -5.0099017057931805041448570e-01 -1.7429519653626579511751515e-01 6.5396862459380133980602068e-01 1.4248271279558594182290676e-01 6.5396862459380145082832314e-01 1.4248271279558588631175553e-01 3.0354605037438009418337970e-01 5.8134046997185856442413865e-02
1.6684999999999999431565811e+02 -4.9418177996147127917225816e-01 -1.7608170360752151140104615e-01 6.5952555724907213630103797e-01 9.4911554051931190656432591e-02 6.5952555724907224732334043e-01 9.4911554051931149023069167e-02 3.1569942693684177603685725e-01 3.7066151261916452375189124e-02
1.6700000000000000000000000e+02 -4.8492843213646891209478440e-01 -1.8037476841411576033991082e-01 6.5628323066341920366539853e-01 4.5381475038215358941418032e-02 6.5628323066341920366539853e-01 4.5381475038215393635887551e-02 3.1895848345388072564432491e-01 2.6746437772733926835355689e-02
1.6715000000000000568434189e+02 -4.8686472188419482876042821e-01 -1.7504813219236994847882727e-01 6.4986908226397921417571979e-01 -1.5584980543064165265515486e-03 6.4986908226397888110881240e-01 -1.5584980543064249833284940e-03 3.1930386103785979301505904e-01 6.7595821382161799112386902e-03
1.6730000000000001136868377e+02 -4.8412611259267540608774993e-01 -1.6505217388469611838885953e-01 6.5922702879540340248354369e-01 -6.1831240406021469036002003e-02 6.5922702879540340248354369e-01 -6.1831240406021448219320291e-02 2.8786091539657970850285551e-01 -1.3980008669839496734943474e-02
1.6744999999999998863131623e+02 -4.9068282997938994505204846e-01 -1.5690683058296794882835457e-01 6.5183286913045546118183893e-01 -1.1201946272382216907015362e-01 6.5183286913045579424874632e-01 -1.1201946272382212743679020e-01 2.8021740659058130828995559e-01 -1.7593078450734711548619771e-02
1.6759999999999999431565811e+02 -4.8347377044145578572909017e-01 -1.5298101965549953940026739e-01 6.2558562672149475858418555e-01 -1.5830510463641236928999945e-01 6.2558562672149475858418555e-01 -1.5830510463641228602327260e-01 2.5528737636433895819010331e-01 -1.8546141349753048066517636e-02
1.6775000000000000000000000e+02 -4.9080952981634468068605770e-01 -1.3218541365851102509232362e-01 6.3379498755232877016396742e-01 -2.1362388246756158771688661e-01 6.3379498755232910323087481e-01 -2.1362388246756192078379399e-01 2.3369926314436456626921768e-01 -3.8275757305832699972647504e-02
1.6790000000000000568434189e+02 -4.8594783765253235507941554e-01 -1.2326250568177082866938576e-01 6.0928871261129946557133508e-01 -2.6496751394469680862542305e-01 6.0928871261129946557133508e-01 -2.6496751394469675311427181e-01 2.0358028476678191598381318e-01 -4.7157598411749108990864698e-02
1.6805000000000001136868377e+02 -5.0140555115443963263288651e-01 -1.2286238639435553832157666e-01 5.6659460222202640000688234e-01 -3.0660040742840793948076339e-01 5.6659460222202651102918480e-01 -3.0660040742840799499191462e-01 2.1536151853803753297711410e-01 -3.3447512976845283905191764e-02
1.6819999999999998863131623e+02 -4.9208795869668564559873403e-01 -1.2653209731670836402095404e-01 5.8493398281634068069934074e-01 -3.3569386459482364326589732e-01 5.8493398281634090274394566e-01 -3.3569386459482358775474609e-01 1.4732080113563122969466690e-01 -7.7755716371970207134722841e-02
1.6834999999999999431565811e+02 -4.9051897402832678185546911e-01 -1.1205961507201464555372183e-01 5.3575147862313432511882638e-01 -3.5013831748210128003151453e-01 5.3575147862313443614112884e-01 -3.5013831748210133554266577e-01 1.5627124304281855837750470e-01 -7.7096450172451855276101185e-02
1.6850000000000000000000000e+02 -4.8370430432972477685638069e-01 -1.1225461073428377734018113e-01 4.7568804817491305847454441e-01 -3.2982305711009890503149222e-01 4.7568804817491283642993949e-01 -3.2982305711009884952034099e-01 1.8791888787857224940580636e-01 -9.9424341766620849547564376e-02
1.6865000000000000568434189e+02 -4.4569059276578559813941638e-01 -1.0310208443396018385129764e-01 5.2962467620259878753330440e-01 -4.0685070768450226630363886e-01 5.2962467620259878753330440e-01 -4.0685070768450232181479009e-01 7.4282011358791838473436542e-02 -1.0090642057236312578716309e-01
1.6880000000000001136868377e+02 -4.5006098781067815917111830e-01 -7.2353303844252703225237155e-02 5.0332929139813209484799472e-01 -5.1336645509988498847775418e-01 5.0332929139813231689259965e-01 -5.1336645509988498847775418e-01 6.2039437627763177607320699e-02 -7.9768079176379319550349578e-02
1.6894999999999998863131623e+02 -1.0269598423881158844039874e+00 -3.7703626031368420168377043e-01 9.9536705493768773411744633e-01 -4.2644986747977003949117147e-01 9.9536705493768784513974879e-01 -4.2644986747976981744656655e-01 -8.2427594645527391126194061e-01 1.3687620310577099935755996e+00
1.6909999999999999431565811e+02 -4.2429526013134633011247843e-01 2.7491124042990894293936321e-02 4.0336600759500584878480822e-01 -4.9738500084005965451439124e-01 4.0336600759500595980711068e-01 -4.9738500084006009860360109e-01 2.1039438258294632100309229e-01 -1.5594211683935613188545233e-01
1.6925000000000000000000000e+02 -4.2549456870931290364268307e-01 -3.2585000985998230360607408e-02 3.4409612878821255188555028e-01 -4.8850189621294964892328494e-01 3.4409612878821260739670151e-01 -4.8850189621294998199019233e-01 8.2266361989912994978624283e-02 -9.4778321196031772855050690e-02
1.6940000000000000568434189e+02 -3.7522152432307531721988880e-01 -7.4998664839427520156789342e-02 4.1943775981826497689652911e-01 -6.0127562503226950063606182e-01 4.1943775981826481036307541e-01 -6.0127562503226950063606182e-01 -6.8696156662384336155646736e-02 -7.5851297910485671049940493e-02
1.6955000000000001136868377e+02 -3.6842809442579943501883122e-01 -6.6491116407723954706554537e-02 2.0416846102240804317062839e-01 -5.5694910872394709500099452e-01 2.0416846102240815419293085e-01 -5.5694910872394709500099452e-01 -1.7395583021412523716531240e-02 -1.3242859307889404130165190e-01
1.6969999999999998863131623e+02 -3.4502137922289066729319984e-01 -6.1525517733851162183178474e-02 1.7371332982758994067928882e-01 -5.8998607327517671450323178e-01 1.7371332982758991292371320e-01 -5.8998607327517682552553424e-01 -2.3049409875674432141012815e-02 -4.7790658356435755660385212e-02
1.6984999999999999431565811e+02 -4.0222603586798588715112146e-01 1.0913366803218221834370638e-02 7.2274958603478003937858887e-03 -5.6851750662651212575582349e-01 7.2274958603477674340398451e-03 -5.6851750662651201473352103e-01 1.7475699670429587634368218e-02 -5.2994666086090796985885731e-02
1.7000000000000000000000000e+02 -3.1674690045304199070841378e-01 -3.9174681214332790490928460e-02 1.1471204403356008438841229e-01 -5.7502911609500528822280785e-01 1.1471204403356013989956352e-01 -5.7502911609500539924511031e-01 -3.8094383249357638421273009e-01 -2.6640874129418112836731325e-01
