# GHz S RI R 50
! S-Parameters data
! Freq   reS11   imS11   reS21   imS21   reS12   imS12   reS22   imS22
1.1000000000000000000000000e+02 -2.9201205950704911540327657e-01 -2.1740040300293445030277439e-01 6.0485844609383576653272030e-01 -1.8826673128089391195949531e-01 6.0485844609383576653272030e-01 -1.8826673128089391195949531e-01 -3.7084689329107599353729796e-02 -2.9121304442044643190357078e-01
1.1015000000000000568434189e+02 -3.1449408953523028120713434e-01 -2.1381556956335467933882910e-01 5.7036704395546411472395221e-01 -2.0271761998296419782228384e-01 5.7036704395546411472395221e-01 -2.0271761998296419782228384e-01 -6.6489499117097158875644425e-02 -2.9200894907766972163898345e-01
1.1029999999999999715782906e+02 -3.1629173493987816634387400e-01 -2.2608365220150244967456388e-01 5.4915394355450686258990345e-01 -2.7433061318633783498555090e-01 5.4915394355450686258990345e-01 -2.7433061318633783498555090e-01 -1.2079200046015116376540988e-01 -2.3838115164590056860305367e-01
1.1045000000000000284217094e+02 -3.2281611801559850771781157e-01 -2.1490628696005453779349637e-01 5.3173750376337669543147513e-01 -3.0241996008347721280884457e-01 5.3173750376337669543147513e-01 -3.0241996008347721280884457e-01 -1.4574712885744384172070909e-01 -2.2176903725283134138912544e-01
1.1059999999999999431565811e+02 -3.3159584446185086381575502e-01 -2.0279460309872276990716955e-01 5.2505880509542901535269266e-01 -3.2776159644920188629413360e-01 5.2505880509542901535269266e-01 -3.2776159644920188629413360e-01 -1.8475533738408209116776959e-01 -1.7267008253180651800029466e-01
1.1075000000000000000000000e+02 -3.3879438336710610002455724e-01 -1.9642284587348565749742590e-01 4.8523905640533859795482385e-01 -3.7631445786873274350625707e-01 4.8523905640533859795482385e-01 -3.7631445786873274350625707e-01 -2.0378801923269054818810275e-01 -1.6631913271580123225845682e-01
1.1090000000000000568434189e+02 -3.3956963897963937659696398e-01 -1.8519565771531076858735787e-01 4.7286549228222196639137564e-01 -4.0335017856915339473644622e-01 4.7286549228222196639137564e-01 -4.0335017856915339473644622e-01 -2.1933775908780553387522616e-01 -1.2819778010782265087463827e-01
1.1104999999999999715782906e+02 -3.4309747739174434322251273e-01 -1.7303087895286578534737032e-01 4.4073536472916130524168921e-01 -4.3133868950483189586009303e-01 4.4073536472916130524168921e-01 -4.3133868950483189586009303e-01 -2.4850058470260488752145989e-01 -9.9700174469219790540641668e-02
1.1120000000000000284217094e+02 -3.4577770367974969278890285e-01 -1.6517684011811772926137110e-01 4.0782611597792522983851882e-01 -4.4921739255581477623380238e-01 4.0782611597792522983851882e-01 -4.4921739255581477623380238e-01 -2.7912965112028081948736258e-01 -6.1440889057541053785982399e-02
1.1134999999999999431565811e+02 -3.4192847635457807031755806e-01 -1.5649525631821126214759943e-01 3.7669911390497701209056913e-01 -4.8128920794934149096633291e-01 3.7669911390497701209056913e-01 -4.8128920794934149096633291e-01 -2.8728528161303451549102306e-01 -3.4560622047305838977493408e-02
1.1150000000000000000000000e+02 -3.3297447897537818528590492e-01 -1.4811679620090473230575867e-01 3.4904532249141168032124938e-01 -5.1276548011806433180481690e-01 3.4904532249141168032124938e-01 -5.1276548011806433180481690e-01 -2.8773076742835457242364328e-01 -5.5068547383219637256224210e-03
1.1165000000000000568434189e+02 -3.3348346679452395280307542e-01 -1.4419884121335449500556081e-01 3.1246293126236901471770580e-01 -5.3733737264948400191855171e-01 3.1246293126236901471770580e-01 -5.3733737264948400191855171e-01 -3.0115985471909129111978132e-01 2.6465480895429081137359972e-02
1.1179999999999999715782906e+02 -3.3184520038234471828175742e-01 -1.3611141228048967422026294e-01 2.7414365255689188138887857e-01 -5.6002366036786133118852149e-01 2.7414365255689188138887857e-01 -5.6002366036786133118852149e-01 -3.0621994328778118221734417e-01 6.3118195748474159589846977e-02
1.1195000000000000284217094e+02 -3.3191353443566362635408495e-01 -1.3198389690231657200847337e-01 2.3778196450619409896276579e-01 -5.8530744840838755393974679e-01 2.3778196450619409896276579e-01 -5.8530744840838755393974679e-01 -3.0223725290827152534234301e-01 8.8506195628746398007535845e-02
1.1209999999999999431565811e+02 -3.2815246687522137136738820e-01 -1.2255962397077312109328062e-01 1.9350817075766824082450057e-01 -6.0307049880001495356651731e-01 1.9350817075766824082450057e-01 -6.0307049880001495356651731e-01 -2.9869934473947223896317382e-01 1.2144830772959955278444966e-01
1.1225000000000000000000000e+02 -3.2531331065210156161526811e-01 -1.1366530500528226887979599e-01 1.5030272528142721299992957e-01 -6.2390158603399803460831663e-01 1.5030272528142721299992957e-01 -6.2390158603399803460831663e-01 -2.8695752692617654266982186e-01 1.5663226048603492990274333e-01
1.1240000000000000568434189e+02 -3.1811412702143337938309742e-01 -1.0681571166331146893746507e-01 1.0205455934937988915489626e-01 -6.3669913543715506154541117e-01 1.0205455934937988915489626e-01 -6.3669913543715506154541117e-01 -2.6932390289861213306110699e-01 1.7900338558333872551742161e-01
1.1254999999999999715782906e+02 -3.1273555633084804128429823e-01 -1.0256275975967883706818640e-01 5.0986547090752364075338932e-02 -6.4707116089721761209574424e-01 5.0986547090752364075338932e-02 -6.4707116089721761209574424e-01 -2.5248654226708505676768368e-01 1.9924303450525371328438951e-01
1.1270000000000000284217094e+02 -3.0557985365819567702416748e-01 -9.8433325022589196473532525e-02 2.3599164738054441946280004e-03 -6.4944299432423713280826405e-01 2.3599164738054441946280004e-03 -6.4944299432423713280826405e-01 -2.3349785094508493377141178e-01 2.2333682712909191936390130e-01
1.1284999999999999431565811e+02 -2.9837795009108603050407282e-01 -9.5091770525184290963061073e-02 -4.8515806616328829847795134e-02 -6.5056221560636184886305955e-01 -4.8515806616328829847795134e-02 -6.5056221560636184886305955e-01 -2.0826517410629047377668144e-01 2.4375035634395386674455608e-01
1.1300000000000000000000000e+02 -2.8992376347672760283913362e-01 -9.4996354493320056544547469e-02 -9.9953387186582878798368768e-02 -6.4436681193554223856523322e-01 -9.9953387186582878798368768e-02 -6.4436681193554223856523322e-01 -1.7609359341333183368583093e-01 2.5811649139668801922198327e-01
1.1315000000000000568434189e+02 -2.8266772987234228819986015e-01 -9.6862124970979512905699949e-02 -1.5110992093356942489457140e-01 -6.3389152586820318724392109e-01 -1.5110992093356942489457140e-01 -6.3389152586820318724392109e-01 -1.4328672432645028766984296e-01 2.6436989631257490351856632e-01
1.1329999999999999715782906e+02 -2.7697439761053344042807112e-01 -1.0179122536144126487389627e-01 -1.9980263583810289884645783e-01 -6.1857334497217775215460733e-01 -1.9980263583810289884645783e-01 -6.1857334497217775215460733e-01 -1.0686171855650872242193827e-01 2.6791520711992355963104728e-01
1.1345000000000000284217094e+02 -2.7436020616294348739572229e-01 -1.0742531432259341817037068e-01 -2.4671292298030242373663157e-01 -5.9950522364733160873839779e-01 -2.4671292298030242373663157e-01 -5.9950522364733160873839779e-01 -7.0737789902635919703222100e-02 2.6388042736717443048632958e-01
1.1359999999999999431565811e+02 -2.7695771201302338271332815e-01 -1.1314435110206834400603526e-01 -2.8950787768034241809189666e-01 -5.7629278512768833397927892e-01 -2.8950787768034241809189666e-01 -5.7629278512768833397927892e-01 -3.4284275025291022220841342e-02 2.4927138363784870356276713e-01
1.1375000000000000000000000e+02 -2.8097599875304440919521198e-01 -1.1548338883573019963968420e-01 -3.3059510027087751771190938e-01 -5.5097247252853176480158481e-01 -3.3059510027087751771190938e-01 -5.5097247252853176480158481e-01 -5.9978713796813637113003459e-03 2.3271513492158107938578837e-01
1.1390000000000000568434189e+02 -2.8590393876713254828203503e-01 -1.1538985639809931638133378e-01 -3.6821665250862789520169827e-01 -5.2328813129908302581583257e-01 -3.6821665250862789520169827e-01 -5.2328813129908302581583257e-01 1.9243674611373228627853038e-02 2.1459128072624841787607863e-01
1.1404999999999999715782906e+02 -2.9049588448905389048704251e-01 -1.1408873684785483804127182e-01 -4.0305616461217802504179986e-01 -4.9470769073115727909595307e-01 -4.0305616461217802504179986e-01 -4.9470769073115727909595307e-01 4.5185669792311214387758866e-02 1.9645035050980838575718224e-01
1.1420000000000000284217094e+02 -2.9632711154549684628989326e-01 -1.0961508838479092076134691e-01 -4.3616122635358156589546752e-01 -4.6568557731237053554096406e-01 -4.3616122635358156589546752e-01 -4.6568557731237053554096406e-01 6.7076259450397662797982434e-02 1.7327708334779337584485859e-01
1.1434999999999999431565811e+02 -2.9935452069918860873443123e-01 -1.0152132441683212049632345e-01 -4.6885325954766321476796520e-01 -4.3425632674911290864727675e-01 -4.6885325954766321476796520e-01 -4.3425632674911290864727675e-01 8.3882460454222818047043120e-02 1.5346778805199784434520893e-01
1.1450000000000000000000000e+02 -2.9947730368234193321086423e-01 -9.3195569147423967804044764e-02 -4.9942986773208308814986367e-01 -4.0052666679756376844068200e-01 -4.9942986773208308814986367e-01 -4.0052666679756376844068200e-01 1.0348750764308843608230148e-01 1.3509674195338211566408404e-01
1.1465000000000000568434189e+02 -2.9719219861709755825529555e-01 -8.5458430660409312462633125e-02 -5.2837996704945455750390693e-01 -3.6481793408891416419237430e-01 -5.2837996704945455750390693e-01 -3.6481793408891416419237430e-01 1.2590963722390174917009631e-01 1.1404832059211722494751484e-01
1.1479999999999999715782906e+02 -2.9263233699949248167726523e-01 -7.9177976707888800267376439e-02 -5.5596796654855029640174280e-01 -3.2665210521300835910807336e-01 -5.5596796654855029640174280e-01 -3.2665210521300835910807336e-01 1.4562681871786009590863387e-01 9.0649562019949975200105996e-02
1.1495000000000000284217094e+02 -2.8800796599024702793201413e-01 -7.4874125352257125953769901e-02 -5.8020477419020832776652696e-01 -2.8477766657255426663297726e-01 -5.8020477419020832776652696e-01 -2.8477766657255426663297726e-01 1.6510249558221906651667155e-01 6.3626581717004138116777767e-02
1.1509999999999999431565811e+02 -2.8343643097423226739905999e-01 -7.2108783272945314868351829e-02 -6.0055695993695312751015081e-01 -2.4146693652925435569223112e-01 -6.0055695993695312751015081e-01 -2.4146693652925435569223112e-01 1.8108981726384090760184620e-01 3.3806118035927472387225379e-02
1.1525000000000000000000000e+02 -2.8036372833759382050544673e-01 -7.0152871640359645843965097e-02 -6.1775607757102402040061406e-01 -1.9742292353185633690948464e-01 -6.1775607757102402040061406e-01 -1.9742292353185633690948464e-01 1.9388753675676836940588998e-01 1.3472465617338726020374429e-03
1.1540000000000000568434189e+02 -2.7760500698460643942411252e-01 -6.7851584013295329622650343e-02 -6.3271662162837016829541881e-01 -1.5199137286227412668715431e-01 -6.3271662162837016829541881e-01 -1.5199137286227412668715431e-01 1.9972910300294924312858313e-01 -3.3262695594798157017191187e-02
1.1554999999999999715782906e+02 -2.7506582093625953078230850e-01 -6.4012405502737457219097905e-02 -6.4422355154191512927042140e-01 -1.0434077073582839756404894e-01 -6.4422355154191512927042140e-01 -1.0434077073582839756404894e-01 2.0134284170112692891052575e-01 -6.6537677412710952151719823e-02
1.1570000000000000284217094e+02 -2.7030487991615426146552181e-01 -6.0763754357685176299419538e-02 -6.5190680957126323491479525e-01 -5.5071522600925841561814167e-02 -6.5190680957126323491479525e-01 -5.5071522600925841561814167e-02 1.9701300557248860312320460e-01 -9.6879911972612114956504570e-02
1.1584999999999999431565811e+02 -2.6592808128199729722496159e-01 -5.9688194486911552716357221e-02 -6.5542736465416584490384366e-01 -4.8084108154948243876725122e-03 -6.5542736465416584490384366e-01 -4.8084108154948243876725122e-03 1.8913198168813888377925991e-01 -1.2453628779998612841062311e-01
1.1600000000000000000000000e+02 -2.6352894550682770535843247e-01 -5.7788993730354246136649010e-02 -6.5409461081758679679154511e-01 4.5642680450624938115478102e-02 -6.5409461081758679679154511e-01 4.5642680450624938115478102e-02 1.7931495836614552707999337e-01 -1.4989882790743985774284397e-01
1.1615000000000000568434189e+02 -2.5978114978092292641775884e-01 -5.4578616008199284936885931e-02 -6.4868637905449522129686102e-01 9.5637255981305777097212228e-02 -6.4868637905449522129686102e-01 9.5637255981305777097212228e-02 1.6518256238100906263532863e-01 -1.7335985706275569562251349e-01
1.1629999999999999715782906e+02 -2.5525428360649421444250606e-01 -5.1405285351096008383819935e-02 -6.3885058129976401986027668e-01 1.4572757682981887783491004e-01 -6.3885058129976401986027668e-01 1.4572757682981887783491004e-01 1.4762412552344980620766535e-01 -1.9213199596201993579747125e-01
1.1645000000000000284217094e+02 -2.4822633260809295885351844e-01 -4.8914396620482303301713500e-02 -6.2456042174943182665458608e-01 1.9457468530453791988321655e-01 -6.2456042174943182665458608e-01 1.9457468530453791988321655e-01 1.2729982987052854137566271e-01 -2.0792202689782748881164309e-01
1.1659999999999999431565811e+02 -2.4159555247405992139952957e-01 -4.9552093964656193647577709e-02 -6.0574252601874944978987969e-01 2.4108563310115230238217521e-01 -6.0574252601874944978987969e-01 2.4108563310115230238217521e-01 1.0529188577161034678919549e-01 -2.1974736632599892183215218e-01
1.1675000000000000000000000e+02 -2.3556364892505937680411421e-01 -5.1376259563140166952699417e-02 -5.8365506243025278010350121e-01 2.8495909963051707647352373e-01 -5.8365506243025278010350121e-01 2.8495909963051707647352373e-01 8.1896649065446136539492272e-02 -2.2840805814977346854810492e-01
1.1690000000000000568434189e+02 -2.3070668237367392139347544e-01 -5.4783805429836393563469699e-02 -5.5847659855560904951232715e-01 3.2624703493347712024430507e-01 -5.5847659855560904951232715e-01 3.2624703493347712024430507e-01 5.4889427993788784954087845e-02 -2.3285162611390797238186678e-01
1.1704999999999999715782906e+02 -2.2739707236371897725035751e-01 -5.7808916400009298375284317e-02 -5.3184261679839139880243692e-01 3.6513877116424631186220040e-01 -5.3184261679839139880243692e-01 3.6513877116424631186220040e-01 2.9089605203680250766762327e-02 -2.3335493384145353235048503e-01
1.1720000000000000284217094e+02 -2.2566000074424785726279197e-01 -6.1648553689492548157691232e-02 -5.0222862260909606479941658e-01 4.0326746150947179181400770e-01 -5.0222862260909606479941658e-01 4.0326746150947179181400770e-01 -1.6935385180155684489711199e-03 -2.3215055774974965863144405e-01
1.1734999999999999431565811e+02 -2.2481950847728043862971958e-01 -6.5207253159606751169441452e-02 -4.6821639324591485253890255e-01 4.3797015058436672418906710e-01 -4.6821639324591485253890255e-01 4.3797015058436672418906710e-01 -3.4522056923363610148047798e-02 -2.1820115449870960966372024e-01
1.1750000000000000000000000e+02 -2.2626665763301001543794655e-01 -6.8446138914584675472241315e-02 -4.3293137625730715445371288e-01 4.6928463830181338378721989e-01 -4.3293137625730715445371288e-01 4.6928463830181338378721989e-01 -6.7002676779494951819771131e-02 -2.0076165903526962952518886e-01
1.1765000000000000568434189e+02 -2.3095390153705819269447375e-01 -6.8091633191054420914944956e-02 -3.9621579146446417318827571e-01 4.9710190437505674676543777e-01 -3.9621579146446417318827571e-01 4.9710190437505674676543777e-01 -9.5142502623548175222367718e-02 -1.6592554214517599153744243e-01
1.1779999999999999715782906e+02 -2.3231217613684401745999253e-01 -6.1177226766356833376203639e-02 -3.5915629038381530202528324e-01 5.2214042702958507469190863e-01 -3.5915629038381530202528324e-01 5.2214042702958507469190863e-01 -1.0130905489519610729320931e-01 -1.3166711277344461672456077e-01
1.1795000000000000284217094e+02 -2.2746330210012993822132898e-01 -5.6750477736030348341333962e-02 -3.2020162848927136156618189e-01 5.4644277138389918402339163e-01 -3.2020162848927136156618189e-01 5.4644277138389918402339163e-01 -1.0473033373567264270320720e-01 -1.1138992042964035444896354e-01
1.1809999999999999431565811e+02 -2.2254875302523158264733638e-01 -5.4633117189239327471383945e-02 -2.7915385351670313207606000e-01 5.6696910153278345934069193e-01 -2.7915385351670313207606000e-01 5.6696910153278345934069193e-01 -1.1483022686603855389009254e-01 -9.0580791473608285313545707e-02
1.1825000000000000000000000e+02 -2.1668081228628860435136971e-01 -5.4536218818787979278894795e-02 -2.3745229813898449666709212e-01 5.8489890867592453371770489e-01 -2.3745229813898449666709212e-01 5.8489890867592453371770489e-01 -1.2055733021447340158616157e-01 -6.7653181260226735727059122e-02
1.1840000000000000568434189e+02 -2.1266188858812409834264656e-01 -5.6075167299360462180857212e-02 -1.9410305054554777282049827e-01 5.9996371294463757273263127e-01 -1.9410305054554777282049827e-01 5.9996371294463757273263127e-01 -1.2891346807920359140986477e-01 -4.7046194185347084415482755e-02
1.1854999999999999715782906e+02 -2.0863965685867541521858470e-01 -5.7014863247006553059748057e-02 -1.4914199784254469904887230e-01 6.1191255389269338937907605e-01 -1.4914199784254469904887230e-01 6.1191255389269338937907605e-01 -1.3728743543004914839933406e-01 -2.5067399004075084645304372e-02
1.1870000000000000284217094e+02 -2.0485077535852541652516834e-01 -5.8818072808320326361197772e-02 -1.0357695229741040177096068e-01 6.1975390425176479780589034e-01 -1.0357695229741040177096068e-01 6.1975390425176479780589034e-01 -1.4622358636416155075465895e-01 1.8118117606025626806220963e-03
1.1884999999999999431565811e+02 -2.0196626578691084796801647e-01 -6.1026798911648721945866214e-02 -5.8175466268916280199174906e-02 6.2391561447535126561092511e-01 -5.8175466268916280199174906e-02 6.2391561447535126561092511e-01 -1.5285409173983857678003062e-01 3.3794551067277397993215970e-02
1.1900000000000000000000000e+02 -1.9996145328526804263447048e-01 -6.3222680898954733419436991e-02 -1.3184505324172875184718379e-02 6.2485661680506798809631164e-01 -1.3184505324172875184718379e-02 6.2485661680506798809631164e-01 -1.5264478039730500213977393e-01 6.9537469091526873943287512e-02
1.1915000000000000568434189e+02 -1.9893985523998980458060259e-01 -6.4458518580032098110876859e-02 3.1249952633665305234966780e-02 6.2222925384870586551500082e-01 3.1249952633665305234966780e-02 6.2222925384870586551500082e-01 -1.4644739183506585988858717e-01 1.0494532162081940396269886e-01
1.1929999999999999715782906e+02 -1.9641276698399051658938674e-01 -6.2902132842144187208077710e-02 7.4386999344503337838752088e-02 6.1792273268463815405482364e-01 7.4386999344503337838752088e-02 6.1792273268463815405482364e-01 -1.3152746327697040218396296e-01 1.4618599670469883955448154e-01
1.1945000000000000284217094e+02 -1.9005796156381893347031564e-01 -6.3911132347863344738136959e-02 1.1788249065128848791506044e-01 6.1109784910020292780785667e-01 1.1788249065128848791506044e-01 6.1109784910020292780785667e-01 -9.9840763617867395174343415e-02 1.7839411037398983372881389e-01
1.1959999999999999431565811e+02 -1.8521254954764390654453621e-01 -6.8534648087689692408375208e-02 1.6207626436531014091357861e-01 6.0073283001480626275281338e-01 1.6207626436531014091357861e-01 6.0073283001480626275281338e-01 -6.1707290169070554142205509e-02 1.9396950046968869374452993e-01
1.1975000000000000000000000e+02 -1.8304299471121160403086492e-01 -7.3693114553760249996194887e-02 2.0447792912935663922624485e-01 5.8643163840259471264459989e-01 2.0447792912935663922624485e-01 5.8643163840259471264459989e-01 -3.0053277317941679697144153e-02 1.9614793529710827790779604e-01
1.1990000000000000568434189e+02 -1.8256843919561871469880998e-01 -7.7436306389786047077450348e-02 2.4536904881816859469445546e-01 5.6958180746045361519946937e-01 2.4536904881816859469445546e-01 5.6958180746045361519946937e-01 -5.8184912305852326194766100e-03 1.9351771204078843657825360e-01
1.2004999999999999715782906e+02 -1.8174226862782630331771827e-01 -8.0661968763175828645017873e-02 2.8439239246183051212923942e-01 5.4983948634550128264919522e-01 2.8439239246183051212923942e-01 5.4983948634550128264919522e-01 1.6005205131946295682432435e-02 1.8921569205955857118084396e-01
1.2020000000000000284217094e+02 -1.8101740866029597532005369e-01 -8.3678300534343441619000714e-02 3.2198086843648499044689970e-01 5.2794389706260269612414504e-01 3.2198086843648499044689970e-01 5.2794389706260269612414504e-01 3.5162837363995107231584569e-02 1.8403482599185841395161845e-01
1.2034999999999999431565811e+02 -1.8063609073674802285580654e-01 -8.7903000502439640473362203e-02 3.5826746642322188085572066e-01 5.0404810143085088114389691e-01 3.5826746642322188085572066e-01 5.0404810143085088114389691e-01 5.6510271309185164390065381e-02 1.7432064821616086169875359e-01
1.2050000000000000000000000e+02 -1.8263664290584061267175287e-01 -9.0761428404142502346374499e-02 3.9300846396322069997708581e-01 4.7766188380205060193262057e-01 3.9300846396322069997708581e-01 4.7766188380205060193262057e-01 7.2624005387160892044384752e-02 1.5749886981138480623876319e-01
1.2065000000000000568434189e+02 -1.8510669321915584895066331e-01 -9.1444763219146629751321598e-02 4.2622914928020233515937321e-01 4.4937435104088918613740589e-01 4.2622914928020233515937321e-01 4.4937435104088918613740589e-01 8.0446777880519182435392622e-02 1.4107804711369872907589240e-01
1.2079999999999999715782906e+02 -1.8750084173638634221781274e-01 -9.0125878798805153513384880e-02 4.5797166914040154939158356e-01 4.1795773938907215816485063e-01 4.5797166914040154939158356e-01 4.1795773938907215816485063e-01 9.1521733655807277485472184e-02 1.2747711581491011356703780e-01
1.2095000000000000284217094e+02 -1.8542767825322820085531816e-01 -8.6432451728933157308887303e-02 4.8727108950581704549520623e-01 3.8533122151342746875002376e-01 4.8727108950581704549520623e-01 3.8533122151342746875002376e-01 1.0284425306596788052271307e-01 1.0955379726336085532967246e-01
1.2109999999999999431565811e+02 -1.8148406560318688929278608e-01 -8.4349263826740655813907210e-02 5.1576173152266624466477651e-01 3.4971803385660027441161901e-01 5.1576173152266624466477651e-01 3.4971803385660027441161901e-01 1.1029190853227199831110283e-01 8.5374868414222496171284149e-02
1.2125000000000000000000000e+02 -1.7383259126111555437077527e-01 -8.3913198699848035033710403e-02 5.4187261742242731621388430e-01 3.0921699350206249823358462e-01 5.4187261742242731621388430e-01 3.0921699350206249823358462e-01 1.1131768631776661759857916e-01 6.2333556942398442302089023e-02
1.2140000000000000568434189e+02 -1.6640810797346461402668183e-01 -8.8439114514782452003416324e-02 5.6212660543353998310323050e-01 2.6675288388414586382424432e-01 5.6212660543353998310323050e-01 2.6675288388414586382424432e-01 1.1218546547708573013490962e-01 4.0475368155194584030009963e-02
1.2154999999999999715782906e+02 -1.6123226320692257695910143e-01 -9.5086167963471746045200916e-02 5.7822896773057841368625986e-01 2.2384542275710467285065874e-01 5.7822896773057841368625986e-01 2.2384542275710467285065874e-01 1.1232324491475817462848852e-01 1.6053083372139002882317271e-02
1.2170000000000000284217094e+02 -1.5753169039777936699664451e-01 -1.0185905233824681104248810e-01 5.9093230397955709420898529e-01 1.8204335787872033547429851e-01 5.9093230397955709420898529e-01 1.8204335787872033547429851e-01 1.0774588602333158571244809e-01 -1.3452146179670760803293028e-02
1.2184999999999999431565811e+02 -1.5555911012269157955856258e-01 -1.1010380431651267674197925e-01 6.0237328374287579801915626e-01 1.3828204102553975918254991e-01 6.0237328374287579801915626e-01 1.3828204102553975918254991e-01 9.5084137431533891082757748e-02 -3.6854945290396907975338792e-02
1.2200000000000000000000000e+02 -1.5530940967291201326716532e-01 -1.1840511657904891074100107e-01 6.0874428513820899588893099e-01 9.4081662032309207321922884e-02 6.0874428513820899588893099e-01 9.4081662032309207321922884e-02 8.4658584260415864486404303e-02 -5.9150780714025234796604735e-02
1.2215000000000000568434189e+02 -1.5548230878756827411102392e-01 -1.2404267544137055623298949e-01 6.1309555887718725220025817e-01 5.1181804158887261868571272e-02 6.1309555887718725220025817e-01 5.1181804158887261868571272e-02 7.3010304738673717506181049e-02 -8.3370928840164462703121728e-02
1.2229999999999999715782906e+02 -1.5500758907779804696147608e-01 -1.3148862590969109809257986e-01 6.1486382172202935780802591e-01 6.7446987915250056211391438e-03 6.1486382172202935780802591e-01 6.7446987915250056211391438e-03 5.7572604218613897264500423e-02 -1.0403814360299193375603011e-01
1.2245000000000000284217094e+02 -1.5354019617438030564926521e-01 -1.4129465507746477581640931e-01 6.1276559378745210082684025e-01 -3.8067693765153079454854890e-02 6.1276559378745210082684025e-01 -3.8067693765153079454854890e-02 3.7898343051671355696807808e-02 -1.2570845781393899520672619e-01
1.2259999999999999431565811e+02 -1.5658752746747559014828255e-01 -1.5375833273085301455829210e-01 6.0654272130746555991009927e-01 -8.1619715552508770306516794e-02 6.0654272130746555991009927e-01 -8.1619715552508770306516794e-02 1.6458154119317947028378057e-02 -1.4280570223690497444479774e-01
1.2275000000000000000000000e+02 -1.6302515423220625967459796e-01 -1.6543920690792585093120692e-01 5.9772313637193741353570431e-01 -1.2235947588175244415964471e-01 5.9772313637193741353570431e-01 -1.2235947588175244415964471e-01 -5.4568784423258496346642588e-03 -1.5487713221446830491601077e-01
1.2290000000000000568434189e+02 -1.7290804722752620148362723e-01 -1.7346985176772983239246173e-01 5.8910379615242536299746234e-01 -1.6172294061024894418210351e-01 5.8910379615242536299746234e-01 -1.6172294061024894418210351e-01 -2.4818123239612306651924456e-02 -1.6562532724089540359102557e-01
1.2304999999999999715782906e+02 -1.8449984218379542055821219e-01 -1.8050095193730009146548809e-01 5.7949648251290830636150986e-01 -2.0389557997862137184164055e-01 5.7949648251290830636150986e-01 -2.0389557997862137184164055e-01 -4.6951278331309513613955886e-02 -1.7564736733556585157600693e-01
1.2320000000000000284217094e+02 -1.9738460011893710355224130e-01 -1.8109994415735192196947878e-01 5.6444491811530828062615228e-01 -2.4744967972275597190012775e-01 5.6444491811530828062615228e-01 -2.4744967972275597190012775e-01 -6.5606603595498927394835675e-02 -1.8033841121804447538146121e-01
1.2334999999999999431565811e+02 -2.0550651878640674441456326e-01 -1.8016960928115643980618188e-01 5.4457507838785279563609265e-01 -2.8810365335536464170829163e-01 5.4457507838785279563609265e-01 -2.8810365335536464170829163e-01 -8.6162770914966241297960892e-02 -1.9053584049557259483265170e-01
1.2350000000000000000000000e+02 -2.1170674648813275764425157e-01 -1.7980622022432812823211634e-01 5.2286346123173499389480412e-01 -3.2753560431666894903202092e-01 5.2286346123173499389480412e-01 -3.2753560431666894903202092e-01 -1.1218693465062409830856893e-01 -1.9728485317876318094754140e-01
1.2365000000000000568434189e+02 -2.1824850326641292985740961e-01 -1.8024512979961337943990429e-01 4.9751715667098889150921082e-01 -3.6559686980121858246306488e-01 4.9751715667098889150921082e-01 -3.6559686980121858246306488e-01 -1.3965715047210017218937139e-01 -1.9716548098783737152928097e-01
1.2379999999999999715782906e+02 -2.2367826924927664000719574e-01 -1.8035435317725334591898445e-01 4.6964681631139121309459483e-01 -4.0114468134749037275810224e-01 4.6964681631139121309459483e-01 -4.0114468134749037275810224e-01 -1.6555678264467232896350879e-01 -1.9474349285906847328853075e-01
1.2395000000000000284217094e+02 -2.2926191709276383390303522e-01 -1.8213683253154544505747481e-01 4.3843151567972538096285007e-01 -4.3508328861537226561750913e-01 4.3843151567972538096285007e-01 -4.3508328861537226561750913e-01 -1.9383383350845440062926173e-01 -1.9015091127617092525703413e-01
1.2409999999999999431565811e+02 -2.3668904900370846267065872e-01 -1.8540735462658103349653516e-01 4.0298919237760022493688439e-01 -4.6650259231047125352276339e-01 4.0298919237760022493688439e-01 -4.6650259231047125352276339e-01 -2.2984051156954007910648841e-01 -1.7961756539941284294137347e-01
1.2425000000000000000000000e+02 -2.4856658333080700051809231e-01 -1.8722608490664655045421227e-01 3.6522322531059325800839588e-01 -4.9161168171685482031207926e-01 3.6522322531059325800839588e-01 -4.9161168171685482031207926e-01 -2.6352658275694246237108587e-01 -1.5097249182497049502238440e-01
1.2440000000000000568434189e+02 -2.6195087120696775029315972e-01 -1.8293498104577943230708570e-01 3.2937988114961447294604113e-01 -5.1222112181945933517823732e-01 3.2937988114961447294604113e-01 -5.1222112181945933517823732e-01 -2.8520040562023546426573262e-01 -1.1090884232573115786291140e-01
1.2454999999999999715782906e+02 -2.7192239906736953569676984e-01 -1.7364749088010769662027144e-01 2.9469076906723568054502493e-01 -5.3278321523547511606722082e-01 2.9469076906723568054502493e-01 -5.3278321523547511606722082e-01 -2.8959501472058624127470239e-01 -6.9233694487169858411412804e-02
1.2470000000000000284217094e+02 -2.7759857378343660849751018e-01 -1.6396925761977668156710308e-01 2.5812386091347672145701608e-01 -5.5229453822050100786356097e-01 2.5812386091347672145701608e-01 -5.5229453822050100786356097e-01 -2.8650714817768596631708533e-01 -3.3326120233053570240944197e-02
1.2484999999999999431565811e+02 -2.8049542669030197439283825e-01 -1.5407132223034458728960772e-01 2.2043210205533761425478190e-01 -5.7034435473952938000508084e-01 2.2043210205533761425478190e-01 -5.7034435473952938000508084e-01 -2.7854382756078721605774717e-01 6.0199459065340802949722887e-04
1.2500000000000000000000000e+02 -2.8058046173597256389697918e-01 -1.4563705227186271584649546e-01 1.8047616014955619734294601e-01 -5.8650902073701860484078452e-01 1.8047616014955619734294601e-01 -5.8650902073701860484078452e-01 -2.6751237649492914938420540e-01 3.2292436166371708827771414e-02
1.2515000000000000568434189e+02 -2.7855957914644369211032426e-01 -1.3771140680311272364022557e-01 1.3813014656272826208294191e-01 -6.0029964583427042335017632e-01 1.3813014656272826208294191e-01 -6.0029964583427042335017632e-01 -2.5120454022732729981726152e-01 6.3085552498157060341554825e-02
1.2529999999999999715782906e+02 -2.7406769461625052342057529e-01 -1.3416388308149421182413619e-01 9.4496368500963628944688821e-02 -6.1023250290192765366015237e-01 9.4496368500963628944688821e-02 -6.1023250290192765366015237e-01 -2.2975063298817860468759022e-01 9.1119617015705908769085397e-02
1.2545000000000000284217094e+02 -2.7011074897902975777697065e-01 -1.3383816806937715027103764e-01 5.0508516103541796493647809e-02 -6.1662899512164204285369351e-01 5.0508516103541796493647809e-02 -6.1662899512164204285369351e-01 -2.0561497660256677910695089e-01 1.1799996115763736193038369e-01
1.2559999999999999431565811e+02 -2.6685981931216906648529630e-01 -1.3546907423299442418951344e-01 5.8980588235851613004845362e-03 -6.2085379596404455249114562e-01 5.8980588235851613004845362e-03 -6.2085379596404455249114562e-01 -1.7336618052607660755981556e-01 1.4361710100971628034649541e-01
1.2575000000000000000000000e+02 -2.6561890822510031417991172e-01 -1.3975406482794971996241884e-01 -4.0150346953069550315351677e-02 -6.2106227831807025996369021e-01 -4.0150346953069550315351677e-02 -6.2106227831807025996369021e-01 -1.3791148650316753521138935e-01 1.6013732078947109926936321e-01
1.2590000000000000568434189e+02 -2.6691256570497068345559910e-01 -1.4490344563180526660239877e-01 -8.6162613650017566557792748e-02 -6.1712463994073996076394906e-01 -8.6162613650017566557792748e-02 -6.1712463994073996076394906e-01 -1.0155723861243902417239582e-01 1.7214779436830598968732886e-01
1.2604999999999999715782906e+02 -2.6992382945763782053916202e-01 -1.5054396995480376353349072e-01 -1.3158146665329176205894157e-01 -6.0972323962781638240215898e-01 -1.3158146665329176205894157e-01 -6.0972323962781638240215898e-01 -6.4647192727995572703036942e-02 1.7940215791667138423015615e-01
1.2620000000000000284217094e+02 -2.7639208040571355828873834e-01 -1.5649561824188235048538331e-01 -1.7634379746897510532477327e-01 -5.9879860104891635685930851e-01 -1.7634379746897510532477327e-01 -5.9879860104891635685930851e-01 -3.0226552541112835376102552e-02 1.8194632969381888121240820e-01
1.2634999999999999431565811e+02 -2.8594333225790102837038376e-01 -1.6156968902264287613057547e-01 -2.2017654068766179253913151e-01 -5.8397292087752716849280432e-01 -2.2017654068766179253913151e-01 -5.8397292087752716849280432e-01 5.5965543672568431043945480e-03 1.8444319095405500852358216e-01
1.2650000000000000000000000e+02 -2.9857737926125826888323900e-01 -1.6437484777730226870318120e-01 -2.6141732539726025841275714e-01 -5.6600248336884839694960192e-01 -2.6141732539726025841275714e-01 -5.6600248336884839694960192e-01 4.0758233899221445184490875e-02 1.8016807611596930005504191e-01
1.2665000000000000568434189e+02 -3.1271787239779597067368400e-01 -1.6320292553299745041961444e-01 -3.0167128984446006656483519e-01 -5.4650026621136948978829651e-01 -3.0167128984446006656483519e-01 -5.4650026621136948978829651e-01 7.0602723686291765647915497e-02 1.7435853552745655958844395e-01
1.2679999999999999715782906e+02 -3.2701800285717880223401721e-01 -1.5827502914099988995388912e-01 -3.4187818600696923132531424e-01 -5.2412956075592898042003753e-01 -3.4187818600696923132531424e-01 -5.2412956075592898042003753e-01 1.0081768241912365813295338e-01 1.7153974960027992824329601e-01
1.2695000000000000284217094e+02 -3.3996766023138857981678029e-01 -1.5096722573310006332292232e-01 -3.8061892516218376325554118e-01 -4.9783598722594629704119029e-01 -3.8061892516218376325554118e-01 -4.9783598722594629704119029e-01 1.3440598043285942320146376e-01 1.6594392542301661386261458e-01
1.2709999999999999431565811e+02 -3.5076676349147506428494125e-01 -1.4125154615802498758725392e-01 -4.1726803789874372663248892e-01 -4.6854892337243325695084195e-01 -4.1726803789874372663248892e-01 -4.6854892337243325695084195e-01 1.6756865225328765323098423e-01 1.5603601220742299715560364e-01
1.2725000000000000000000000e+02 -3.6063898081121853467223559e-01 -1.3019784777203649572818733e-01 -4.5184571709087284485661939e-01 -4.3480929508627708113266408e-01 -4.5184571709087284485661939e-01 -4.3480929508627708113266408e-01 2.0056289371513785768641469e-01 1.4234401921440598126622490e-01
1.2740000000000000568434189e+02 -3.6778179406060401701594742e-01 -1.1769325597088919899135817e-01 -4.8219898151158058219323266e-01 -3.9863947308642222466801286e-01 -4.8219898151158058219323266e-01 -3.9863947308642222466801286e-01 2.2984753557171064275443939e-01 1.2406767241997146422605169e-01
1.2754999999999999715782906e+02 -3.7455375190291723130897594e-01 -1.0675241908858752737376818e-01 -5.1028953066896698409493638e-01 -3.5991573231320977965808083e-01 -5.1028953066896698409493638e-01 -3.5991573231320977965808083e-01 2.5759510206217428596175978e-01 1.0555713723152945759942156e-01
1.2770000000000000284217094e+02 -3.8248103972565522523652248e-01 -9.2666380621096305914008440e-02 -5.3291325679589884867226601e-01 -3.1836392370845184585093079e-01 -5.3291325679589884867226601e-01 -3.1836392370845184585093079e-01 2.8591519243206658940081866e-01 7.8636521887861271506992011e-02
1.2784999999999999431565811e+02 -3.8766380670153022247603758e-01 -7.5338870663273604932896887e-02 -5.5123964478476772388404470e-01 -2.7801522369251296940007023e-01 -5.5123964478476772388404470e-01 -2.7801522369251296940007023e-01 3.0423228058775392268486826e-01 4.6542782592194090196535683e-02
1.2800000000000000000000000e+02 -3.8935648050769355865696753e-01 -5.6174771109853118000732053e-02 -5.6756923739867526368385597e-01 -2.3794390317117261601786993e-01 -5.6756923739867526368385597e-01 -2.3794390317117261601786993e-01 3.1490332154386935226142441e-01 1.3351440487533968934363848e-02
1.2815000000000000568434189e+02 -3.8588726832009256906275141e-01 -3.6425725660343452605438586e-02 -5.8212050003539317355460980e-01 -1.9697246218518238425332356e-01 -5.8212050003539317355460980e-01 -1.9697246218518238425332356e-01 3.1932524684713048390705126e-01 -1.6842883984270428515683804e-02
1.2830000000000001136868377e+02 -3.7871322264170381721726244e-01 -1.9412876893405435485551180e-02 -5.9397009743057793684783974e-01 -1.5472833129218746539557117e-01 -5.9397009743057793684783974e-01 -1.5472833129218746539557117e-01 3.2060304275698281450956983e-01 -4.6203311366694893580486792e-02
1.2844999999999998863131623e+02 -3.7045669011978521467653991e-01 -6.1884612319792770690485284e-03 -6.0321736191375208147036346e-01 -1.1129506426205582059196786e-01 -6.0321736191375208147036346e-01 -1.1129506426205582059196786e-01 3.1746365945897947469234168e-01 -7.3162806878353650597013313e-02
1.2859999999999999431565811e+02 -3.6145750442160617943443413e-01 6.8379264019161611898312003e-03 -6.0953854250169436923556532e-01 -6.7676137771281272281775898e-02 -6.0953854250169436923556532e-01 -6.7676137771281272281775898e-02 3.1101969660294326303073831e-01 -1.0225530908779770222771788e-01
1.2875000000000000000000000e+02 -3.5130867141592647673320471e-01 1.9035088554784605763270378e-02 -6.1282184820949958670155411e-01 -2.3596981947984877608925913e-02 -6.1282184820949958670155411e-01 -2.3596981947984877608925913e-02 3.0025796355757866651359222e-01 -1.3300932662779330062363670e-01
1.2890000000000000568434189e+02 -3.3923838707264264424878775e-01 3.1269258008226587242095462e-02 -6.1410782562454924171646553e-01 2.0706915927307289332359730e-02 -6.1410782562454924171646553e-01 2.0706915927307289332359730e-02 2.8256947051994174557876249e-01 -1.6489059923121451856076192e-01
1.2905000000000001136868377e+02 -3.2303201513801532707148567e-01 4.0433442978439704251769626e-02 -6.1296458793883956683856695e-01 6.7064098729085322436738181e-02 -6.1296458793883956683856695e-01 6.7064098729085322436738181e-02 2.5196903318459157317121822e-01 -1.9616260133192409131908107e-01
1.2919999999999998863131623e+02 -3.0615653187986979766321838e-01 4.5317141605051000641246617e-02 -6.0542175118720820137241390e-01 1.1489295946119371105709206e-01 -6.0542175118720820137241390e-01 1.1489295946119371105709206e-01 2.1496835038851808130644372e-01 -2.1626071458488063670166923e-01
1.2934999999999999431565811e+02 -2.9034696587282993185397117e-01 4.6026278474693871345380103e-02 -5.9161575466913129961454842e-01 1.6120510894549558433830327e-01 -5.9161575466913129961454842e-01 1.6120510894549558433830327e-01 1.7579474463483410473507718e-01 -2.2713870203185079765795251e-01
1.2950000000000000000000000e+02 -2.7644737409482994516807253e-01 4.4986829678027535905915357e-02 -5.7284236479408490172460233e-01 2.0422430780028355545852037e-01 -5.7284236479408490172460233e-01 2.0422430780028355545852037e-01 1.3741177933849926806608721e-01 -2.3148762957334029222167260e-01
1.2965000000000000568434189e+02 -2.6419084505211237745569974e-01 4.2056938813338058669177855e-02 -5.5147557889607978776069785e-01 2.4214993980550164609510944e-01 -5.5147557889607978776069785e-01 2.4214993980550164609510944e-01 1.0090966681655128001082744e-01 -2.2891020967797590102144056e-01
1.2980000000000001136868377e+02 -2.5286486479895614598589759e-01 3.9820521587259280482662405e-02 -5.3054764753740024652017837e-01 2.7665479583329394275281743e-01 -5.3054764753740024652017837e-01 2.7665479583329394275281743e-01 7.0039538840335785474522368e-02 -2.2453794663661130748266714e-01
1.2994999999999998863131623e+02 -2.4060434316225373652109454e-01 3.5915536429123900985516116e-02 -5.0892593614910996979716629e-01 3.1077694956460821806842887e-01 -5.0892593614910996979716629e-01 3.1077694956460821806842887e-01 3.7989405932348396799369539e-02 -2.2316374234425120914870888e-01
1.3009999999999999431565811e+02 -2.2885959452494680776979408e-01 2.8695624414293373349860161e-02 -4.8473907723842446504392001e-01 3.4318988982912113083756367e-01 -4.8473907723842446504392001e-01 3.4318988982912113083756367e-01 1.3997001426331527173391178e-03 -2.2077229920710814137230216e-01
1.3025000000000000000000000e+02 -2.1867203925528977404013631e-01 2.0247332781928622374989502e-02 -4.5903742932513919017267767e-01 3.7313107693978087020525436e-01 -4.5903742932513919017267767e-01 3.7313107693978087020525436e-01 -3.7250547445667372969957398e-02 -2.1017052824712684211405644e-01
1.3040000000000000568434189e+02 -2.1021349171859146642837857e-01 8.2143031577286002020699129e-03 -4.3241067903174157383006104e-01 4.0203035202264736369670572e-01 -4.3241067903174157383006104e-01 4.0203035202264736369670572e-01 -7.5747725957776415595112951e-02 -1.9518910496878932869790901e-01
1.3055000000000001136868377e+02 -2.0694471666748906479860182e-01 -5.0294979068362943852577018e-03 -4.0427733192344628143644059e-01 4.2799829977066389252726708e-01 -4.0427733192344628143644059e-01 4.2799829977066389252726708e-01 -1.1169096272877893083474987e-01 -1.7236249080864729510409461e-01
1.3069999999999998863131623e+02 -2.0666796035166806744243218e-01 -1.7547347019610151641622053e-02 -3.7641784276362427741347005e-01 4.5172824249691212461499390e-01 -3.7641784276362427741347005e-01 4.5172824249691212461499390e-01 -1.4109517953082548191723333e-01 -1.4437760006752495267612346e-01
1.3084999999999999431565811e+02 -2.0917361601596815012804598e-01 -2.8030360085959778182473912e-02 -3.4887422356435049408673876e-01 4.7589041496057687963272542e-01 -3.4887422356435049408673876e-01 4.7589041496057687963272542e-01 -1.6225698530054466495187171e-01 -1.1543482408791437554551607e-01
1.3100000000000000000000000e+02 -2.1311862883117071998384517e-01 -3.6792328055965099753432668e-02 -3.1888825710170976002189036e-01 4.9975486482850650649112367e-01 -3.1888825710170976002189036e-01 4.9975486482850650649112367e-01 -1.7999719147759590809343422e-01 -8.7899127576965996322400088e-02
1.3115000000000000568434189e+02 -2.1824890769033067350335386e-01 -4.4304035732923331691868185e-02 -2.8688186208763305495850204e-01 5.2160274519288019057228212e-01 -2.8688186208763305495850204e-01 5.2160274519288019057228212e-01 -1.9622684359304290446779362e-01 -6.0319492228708943004633625e-02
1.3130000000000001136868377e+02 -2.2441306034754621157034649e-01 -5.0284777173537908989686684e-02 -2.5502077215833446333093093e-01 5.4305573059181011519314097e-01 -2.5502077215833446333093093e-01 5.4305573059181011519314097e-01 -2.0552729815927153755872325e-01 -3.0066428433516190904528642e-02
1.3144999999999998863131623e+02 -2.3093007030927859002389368e-01 -5.5332746012937514268337225e-02 -2.1928660614366374259631698e-01 5.6467067731487152748570679e-01 -2.1928660614366374259631698e-01 5.6467067731487152748570679e-01 -2.0908018884058165998141021e-01 -4.3368638626951408476806193e-03
1.3159999999999999431565811e+02 -2.3931738283387860022344285e-01 -5.8854050974709276600194130e-02 -1.8051354722339768565930740e-01 5.8382961464799554285320937e-01 -1.8051354722339768565930740e-01 5.8382961464799554285320937e-01 -2.0870024355202371202366862e-01 1.8681892937714349167688255e-02
1.3175000000000000000000000e+02 -2.4767741929755521246292460e-01 -5.9607832361267036602736624e-02 -1.3928060971629685482753302e-01 6.0022745401503563300593669e-01 -1.3928060971629685482753302e-01 6.0022745401503563300593669e-01 -2.0519106110327953174099491e-01 3.8895139207272687309480119e-02
1.3190000000000000568434189e+02 -2.5554327058142889406155973e-01 -5.8437566660130127460526239e-02 -9.5612532192900195893159321e-02 6.1392380236954968708573688e-01 -9.5612532192900195893159321e-02 6.1392380236954968708573688e-01 -1.9890169232447899028137783e-01 5.4875516446695464523042318e-02
1.3205000000000001136868377e+02 -2.6250646842698260874371385e-01 -5.5602142418073534357869647e-02 -4.9484675889424040162722918e-02 6.2384801917265308990323547e-01 -4.9484675889424040162722918e-02 6.2384801917265308990323547e-01 -1.9278074643760950701576462e-01 6.5682639550095789360284471e-02
1.3219999999999998863131623e+02 -2.6870256518458651706637852e-01 -5.1435646814695763773261916e-02 -2.5620100075220727901814666e-03 6.2932121366432669518076182e-01 -2.5620100075220727901814666e-03 6.2932121366432669518076182e-01 -1.8704612974317744167329636e-01 7.6839822800172721817268950e-02
1.3234999999999999431565811e+02 -2.7273640681626931669967462e-01 -4.6603905125105794804429848e-02 4.5044194289421427002118037e-02 6.3073830300878508392514732e-01 4.5044194289421427002118037e-02 6.3073830300878508392514732e-01 -1.8027531148755818191098399e-01 8.6153185084628991496913386e-02
1.3250000000000000000000000e+02 -2.7527187265757790957110274e-01 -4.1418929574959920114629597e-02 9.2965699854396899315389646e-02 6.2828694504647064622560038e-01 9.2965699854396899315389646e-02 6.2828694504647064622560038e-01 -1.7389241024611315489245555e-01 9.3362710216442060251473833e-02
1.3265000000000000568434189e+02 -2.7618160885960513217796120e-01 -3.5571826000095452258165096e-02 1.4118535925404784858727680e-01 6.2248885661048147799334629e-01 1.4118535925404784858727680e-01 6.2248885661048147799334629e-01 -1.6609581829573885625173091e-01 1.0310821605012211732432803e-01
1.3280000000000001136868377e+02 -2.7518733507023451778650269e-01 -3.1231794974173610057732731e-02 1.8999247450901879386009341e-01 6.1216763180763344998069897e-01 1.8999247450901879386009341e-01 6.1216763180763344998069897e-01 -1.5319232470236021637077783e-01 1.0903902403942798693403660e-01
1.3294999999999998863131623e+02 -2.7373541482351237963399626e-01 -2.8896254232760168467741835e-02 2.3712385804710617298596276e-01 5.9749838758578177611013871e-01 2.3712385804710617298596276e-01 5.9749838758578177611013871e-01 -1.4078172195471508332254018e-01 1.1387712184277316851410689e-01
1.3309999999999999431565811e+02 -2.7187572512234264854313892e-01 -2.9148381894380237522312882e-02 2.8353568224212666315509068e-01 5.7882884229092790295823079e-01 2.8353568224212666315509068e-01 5.7882884229092790295823079e-01 -1.2554576033013048474984430e-01 1.1588118546338482817148474e-01
1.3325000000000000000000000e+02 -2.7184860194401205824021872e-01 -3.0472642658062001896901450e-02 3.2846108185699185444406112e-01 5.5663784795043846909123886e-01 3.2846108185699185444406112e-01 5.5663784795043846909123886e-01 -1.0987945250809459662999501e-01 1.1679599254512834649588626e-01
1.3340000000000000568434189e+02 -2.7432148900725128459754387e-01 -3.3022187700104600749373418e-02 3.7103945625728296242584747e-01 5.3002812610060401343758940e-01 3.7103945625728296242584747e-01 5.3002812610060401343758940e-01 -9.3911646983241378605633543e-02 1.1634722855034408672825208e-01
1.3355000000000001136868377e+02 -2.7979982631639416235103113e-01 -3.4727484626466013917234221e-02 4.1103613964309498873817006e-01 4.9981601174178180713170150e-01 4.1103613964309498873817006e-01 4.9981601174178180713170150e-01 -7.5572158485686449780338592e-02 1.1347937545022318550635987e-01
1.3369999999999998863131623e+02 -2.8645829717470561170955534e-01 -3.4574598188342617333113083e-02 4.4803490556986930171134986e-01 4.6679093897949952562953513e-01 4.4803490556986930171134986e-01 4.6679093897949952562953513e-01 -5.7697247661260872564348290e-02 1.0880277141570900145683964e-01
1.3384999999999999431565811e+02 -2.9435295439755421176286632e-01 -3.2365566642060333846231401e-02 4.8186563428020651178584899e-01 4.3111567749422458062369401e-01 4.8186563428020651178584899e-01 4.3111567749422458062369401e-01 -3.8115243812063798189981867e-02 1.0303370292767524696309067e-01
1.3400000000000000000000000e+02 -3.0195623747947464288188257e-01 -2.6843546140489581153243392e-02 5.1272120284509192789101917e-01 3.9300767717980522597542858e-01 5.1272120284509192789101917e-01 3.9300767717980522597542858e-01 -2.0459963271187219663316270e-02 9.3214934605443916515454816e-02
1.3415000000000000568434189e+02 -3.0820912676131806406942815e-01 -2.0479617833425427936289154e-02 5.3994088997765443682652631e-01 3.5317588224187101975104497e-01 5.3994088997765443682652631e-01 3.5317588224187101975104497e-01 -4.6878397304363902606261227e-03 8.4793768383033762958689294e-02
1.3430000000000001136868377e+02 -3.1399988501367115389939499e-01 -1.3307388319456586039946089e-02 5.6412664663838918421845392e-01 3.1246653906251714571951084e-01 5.6412664663838918421845392e-01 3.1246653906251714571951084e-01 1.2571107160198977115150853e-02 7.7172548707139507206953510e-02
1.3444999999999998863131623e+02 -3.1986006340328859698374231e-01 -3.9133987185655076668222563e-03 5.8549479202614640449553463e-01 2.7007531613263757730436510e-01 5.8549479202614640449553463e-01 2.7007531613263757730436510e-01 3.1131957576448519159351136e-02 6.6850530088902737624323436e-02
1.3459999999999999431565811e+02 -3.2355928774955189375361897e-01 7.7104721834271305880292857e-03 6.0323046316559747470620323e-01 2.2565416525771678224465688e-01 6.0323046316559747470620323e-01 2.2565416525771678224465688e-01 4.7052427804060950600195667e-02 5.3697982386929576925638230e-02
1.3475000000000000000000000e+02 -3.2504504698336900148092354e-01 1.9716779173669929381418342e-02 6.1702635931165095151129663e-01 1.8131778556207955865886561e-01 6.1702635931165095151129663e-01 1.8131778556207955865886561e-01 6.0460024193809136505706192e-02 4.2157245095599531203856003e-02
1.3490000000000000568434189e+02 -3.2469673068905285928664739e-01 3.1942550575391928657786877e-02 6.2919718564638038582614854e-01 1.3685285952463199787842996e-01 6.2919718564638038582614854e-01 1.3685285952463199787842996e-01 7.3878876707131377332693489e-02 3.1600852012989844030954600e-02
1.3505000000000001136868377e+02 -3.2285282445668594952792319e-01 4.4727490258270760636882812e-02 6.3897117177839912738335215e-01 9.0607488324593629669401196e-02 6.3897117177839912738335215e-01 9.0607488324593629669401196e-02 8.6008094103436696920006455e-02 2.0521887636426226764196912e-02
1.3519999999999998863131623e+02 -3.1880484601872088878948830e-01 5.7454536320596383269787566e-02 6.4387667486945543426912764e-01 4.3631803231402373211000878e-02 6.4387667486945543426912764e-01 4.3631803231402373211000878e-02 9.8108728398237102230616813e-02 9.8637351336151330577495244e-03
1.3534999999999999431565811e+02 -3.1240318616293072384593188e-01 6.9583262634435136262389676e-02 6.4614368802291288762518207e-01 -2.5584338106282786262646312e-03 6.4614368802291288762518207e-01 -2.5584338106282786262646312e-03 1.0907800746144916126390001e-01 4.7459260412603297089179089e-04
1.3550000000000000000000000e+02 -3.0414194499828606232938455e-01 8.0386404948335474229814679e-02 6.4575760812477100980544265e-01 -4.9863390807740874677289611e-02 6.4575760812477100980544265e-01 -4.9863390807740874677289611e-02 1.2069776111002405993843922e-01 -1.0203382888537618905511195e-02
1.3565000000000000568434189e+02 -2.9494936063329907360852644e-01 9.0014127218964165577652636e-02 6.4167213738718176241349056e-01 -9.8387384612675932160641423e-02 6.4167213738718176241349056e-01 -9.8387384612675932160641423e-02 1.3126454392567371565192502e-01 -2.2310884503582897181450662e-02
1.3580000000000001136868377e+02 -2.8412669851488819849905099e-01 9.8037118349234758651888910e-02 6.3306023240833242393676983e-01 -1.4689038610511329085994703e-01 6.3306023240833242393676983e-01 -1.4689038610511329085994703e-01 1.3912364367409635335093299e-01 -3.4973100641822456313700940e-02
1.3594999999999998863131623e+02 -2.7131840730341538758807474e-01 1.0416706604187042639608762e-01 6.2016206001207141440545456e-01 -1.9400293780775146323946956e-01 6.2016206001207141440545456e-01 -1.9400293780775146323946956e-01 1.4402992694438979115467703e-01 -4.7417126017491095790745703e-02
1.3609999999999999431565811e+02 -2.5841590646118306473510984e-01 1.0692643634595788704189090e-01 6.0425552680644034619916738e-01 -2.3911879063589699945246991e-01 6.0425552680644034619916738e-01 -2.3911879063589699945246991e-01 1.4636947570333047607959998e-01 -5.8985752478750569371968027e-02
1.3625000000000000000000000e+02 -2.4687103972554949593565254e-01 1.0794527572429631068207101e-01 5.8426035437812373629640206e-01 -2.8317371445346212199822844e-01 5.8426035437812373629640206e-01 -2.8317371445346212199822844e-01 1.4827712590140454396170355e-01 -6.8469586687115502332545702e-02
1.3640000000000000568434189e+02 -2.3638515789360850516409585e-01 1.0822248739681085416552975e-01 5.6122160815117250187711306e-01 -3.2499922522812313419038333e-01 5.6122160815117250187711306e-01 -3.2499922522812313419038333e-01 1.4896165703134855995415364e-01 -7.9023238839821013934638927e-02
1.3655000000000001136868377e+02 -2.2506191454371973770243187e-01 1.0740158826218312859701598e-01 5.3617347571489593072158186e-01 -3.6520918830339094141024248e-01 5.3617347571489593072158186e-01 -3.6520918830339094141024248e-01 1.4506834600943219193425193e-01 -9.0414313444912394746033613e-02
1.3669999999999998863131623e+02 -2.1446843590717407090906477e-01 1.0433923549463983149188095e-01 5.0886801996247288393249164e-01 -4.0398578933161660708961449e-01 5.0886801996247288393249164e-01 -4.0398578933161660708961449e-01 1.3756649607148577207915707e-01 -9.9280720065429206577789500e-02
1.3684999999999999431565811e+02 -2.0544633204572596008041785e-01 9.9280300006096999787530422e-02 4.7825174448382545833169388e-01 -4.4090275716949256512577904e-01 4.7825174448382545833169388e-01 -4.4090275716949256512577904e-01 1.2607907380211341719089546e-01 -1.0569825873869337362620513e-01
1.3700000000000000000000000e+02 -1.9874330456166447445021106e-01 9.3555956065716594505232706e-02 4.4511639343832692938818241e-01 -4.7493688694414598616688750e-01 4.4511639343832692938818241e-01 -4.7493688694414598616688750e-01 1.1290287990142079677102771e-01 -1.0776996738227412331312394e-01
1.3715000000000000568434189e+02 -1.9351101011006616170462280e-01 8.7618967737514361071582414e-02 4.0973602587662349971964204e-01 -5.0735026882298261963200048e-01 4.0973602587662349971964204e-01 -5.0735026882298261963200048e-01 9.9958284406776828912022381e-02 -1.0518973715288527925881823e-01
1.3730000000000001136868377e+02 -1.9038087278218293607601197e-01 8.1835525845374956777078523e-02 3.7213267343286882127273429e-01 -5.3801270410632284768581712e-01 3.7213267343286882127273429e-01 -5.3801270410632284768581712e-01 8.7800038233576169210969908e-02 -1.0001872990385354822429065e-01
1.3744999999999998863131623e+02 -1.8874737869781688104353634e-01 7.6717077412932876967488482e-02 3.3124628062049210619477435e-01 -5.6594713200293189636624902e-01 3.3124628062049210619477435e-01 -5.6594713200293189636624902e-01 7.6298238231369303052886721e-02 -9.2582869004198126150484427e-02
1.3759999999999999431565811e+02 -1.8857099118825212946681802e-01 7.3088418282455505647909888e-02 2.8820892236602535518841250e-01 -5.9053244917243818967733660e-01 2.8820892236602535518841250e-01 -5.9053244917243818967733660e-01 6.6944486111709902709243636e-02 -8.3187884223920302573240804e-02
1.3775000000000000000000000e+02 -1.8861826536887518757090731e-01 7.1049637084541261700110226e-02 2.4329940710975320183884207e-01 -6.1293116702135430617914835e-01 2.4329940710975320183884207e-01 -6.1293116702135430617914835e-01 5.9565145208008582478065307e-02 -7.4851773659031090035753664e-02
1.3790000000000000568434189e+02 -1.8908197211446423069425293e-01 7.0092085449177693456945804e-02 1.9528200188706168471952651e-01 -6.3188091159233295002195518e-01 1.9528200188706168471952651e-01 -6.3188091159233295002195518e-01 5.0066982873372536944067690e-02 -6.7644735034905784099024117e-02
1.3805000000000001136868377e+02 -1.8867526752527899458478089e-01 7.1506553579075426974043239e-02 1.4573487146774488643075074e-01 -6.4510117736696304113763745e-01 1.4573487146774488643075074e-01 -6.4510117736696304113763745e-01 4.1880196854429098396455089e-02 -5.6957486178937151433121500e-02
1.3819999999999998863131623e+02 -1.8661441231625419678863409e-01 7.3666664643372486986905301e-02 9.5293388836227940763556887e-02 -6.5472302809524485223136026e-01 9.5293388836227940763556887e-02 -6.5472302809524485223136026e-01 3.4997437635593667271116658e-02 -4.9316562851097679731626755e-02
1.3834999999999999431565811e+02 -1.8316606911879146357691184e-01 7.5131607968142055664628742e-02 4.5160308423355367823948114e-02 -6.6035896940024996215612418e-01 4.5160308423355367823948114e-02 -6.6035896940024996215612418e-01 2.5470803469840690852477039e-02 -4.1247711867560467313698069e-02
1.3850000000000000000000000e+02 -1.7916435626395507685337805e-01 7.5886007123771137550249932e-02 -5.6246533826193340771526508e-03 -6.6234408943329770025343350e-01 -5.6246533826193340771526508e-03 -6.6234408943329770025343350e-01 1.5512299830551709231563073e-02 -3.1462002655650612992221937e-02
1.3865000000000000568434189e+02 -1.7447140241034503338468653e-01 7.6386465724271976340808976e-02 -5.6679902452748995300702006e-02 -6.5940370253338165262846360e-01 -5.6679902452748995300702006e-02 -6.5940370253338165262846360e-01 7.4696991204636136937877744e-03 -2.0204680071495787624380469e-02
1.3880000000000001136868377e+02 -1.6953576836592551546623042e-01 7.6373704049777946245569638e-02 -1.0679805512421126911792868e-01 -6.5225864960106627599145668e-01 -1.0679805512421126911792868e-01 -6.5225864960106627599145668e-01 5.6307146022136915540848290e-05 -9.3785436060448510581233350e-03
1.3894999999999998863131623e+02 -1.6392231461683282045527221e-01 7.4785781462516576212351538e-02 -1.5586726774315717847230189e-01 -6.4126472635345799222506002e-01 -1.5586726774315717847230189e-01 -6.4126472635345799222506002e-01 -6.8903487734524905550248519e-03 1.9618802034689739217931947e-03
1.3909999999999999431565811e+02 -1.5914730064427098921164827e-01 7.2297095732096305908953582e-02 -2.0406419502208178462510091e-01 -6.2660607266017154248771703e-01 -2.0406419502208178462510091e-01 -6.2660607266017154248771703e-01 -1.1997177453287544146576238e-02 1.4440303142601373237452478e-02
1.3925000000000000000000000e+02 -1.5432029614537071116053824e-01 7.0387025809944311904864378e-02 -2.4950084526702667742092956e-01 -6.0813248791357887856889874e-01 -2.4950084526702667742092956e-01 -6.0813248791357887856889874e-01 -1.5039385981557783569795284e-02 2.6173654028923465375555679e-02
1.3940000000000000568434189e+02 -1.4894633152835215494924626e-01 6.6981686652633293244107904e-02 -2.9254480134492827358982936e-01 -5.8716536851226197590847278e-01 -2.9254480134492827358982936e-01 -5.8716536851226197590847278e-01 -1.4398270948114327838496251e-02 3.5832467496578680743457568e-02
1.3955000000000001136868377e+02 -1.4429654776913319880193853e-01 6.2777588970839598436768370e-02 -3.3398878660352848690706651e-01 -5.6425496304795441648849419e-01 -3.3398878660352848690706651e-01 -5.6425496304795441648849419e-01 -1.4666212303015830828445409e-02 4.1638711705981969191103786e-02
1.3969999999999998863131623e+02 -1.4027815768092855019943954e-01 5.7544212351349904865926987e-02 -3.7480446796938815534616651e-01 -5.3881004893790973575562475e-01 -3.7480446796938815534616651e-01 -5.3881004893790973575562475e-01 -1.5083532432592207037092003e-02 4.6716869849796630043137213e-02
1.3984999999999999431565811e+02 -1.3739122651603649649665329e-01 5.2162480811455712303992271e-02 -4.1398510359561291327423760e-01 -5.0991169128530144938338253e-01 -4.1398510359561291327423760e-01 -5.0991169128530144938338253e-01 -1.4226960183286911990063750e-02 4.9388514004971906246055369e-02
1.4000000000000000000000000e+02 -1.3505656479430919181261572e-01 4.6411695577697566206243351e-02 -4.5106027098928336283023555e-01 -4.7844814761621107246369888e-01 -4.5106027098928336283023555e-01 -4.7844814761621107246369888e-01 -1.4626304720810497789207361e-02 5.0274587433774241274075933e-02
1.4015000000000000568434189e+02 -1.3341191402210864080934982e-01 4.0807730235559530607147849e-02 -4.8661503447321508009082436e-01 -4.4471754428882676046796973e-01 -4.8661503447321508009082436e-01 -4.4471754428882676046796973e-01 -1.6798937694318321484088230e-02 4.9388272949057079874712883e-02
1.4030000000000001136868377e+02 -1.3287396410604404572985970e-01 3.4216504607734864185086820e-02 -5.2019388650767917070538715e-01 -4.0789136795050240369420180e-01 -5.2019388650767917070538715e-01 -4.0789136795050240369420180e-01 -1.8668236607885021344221954e-02 4.7958262223152865744157936e-02
1.4044999999999998863131623e+02 -1.3323095745991878069425240e-01 2.7965001824029351445988212e-02 -5.5114264162393844515008823e-01 -3.6720422235986399650542467e-01 -5.5114264162393844515008823e-01 -3.6720422235986399650542467e-01 -2.0845164292212885193134042e-02 4.5507497401259408564833109e-02
1.4059999999999999431565811e+02 -1.3483108753631967147157411e-01 2.1643398456932520790285679e-02 -5.7842537103515401231135229e-01 -3.2344381117254283886097710e-01 -5.7842537103515401231135229e-01 -3.2344381117254283886097710e-01 -2.5124449754867096001875737e-02 4.0904769494708941024452287e-02
1.4075000000000000000000000e+02 -1.3717031063399462431640075e-01 1.5529234912901122150907796e-02 -6.0283724314310194181132374e-01 -2.7733733696352602660084585e-01 -6.0283724314310194181132374e-01 -2.7733733696352602660084585e-01 -3.1670821685079710017252097e-02 3.7699879791722262778463914e-02
1.4090000000000000568434189e+02 -1.4069783173656258412620446e-01 9.0427187336394598826672109e-03 -6.2253376030700235954640220e-01 -2.2850293222504303169984041e-01 -6.2253376030700235954640220e-01 -2.2850293222504303169984041e-01 -3.7788061697937420924109375e-02 3.6489146416406437190005363e-02
1.4105000000000001136868377e+02 -1.4690380942434538846796954e-01 3.2501002211957731938274385e-03 -6.3747595269799006700850441e-01 -1.7838429374542855154750498e-01 -6.3747595269799006700850441e-01 -1.7838429374542855154750498e-01 -4.1270870637496237520736031e-02 3.4986240312353422687863258e-02
1.4119999999999998863131623e+02 -1.5413865456458436531406164e-01 -7.2416233058014093521004284e-04 -6.4801528600053748263576381e-01 -1.2721653741934535464253031e-01 -6.4801528600053748263576381e-01 -1.2721653741934535464253031e-01 -4.4627529815036467986111290e-02 3.1531441763694663393824413e-02
1.4134999999999999431565811e+02 -1.6212484347074307411418204e-01 -2.2403648469341347002070641e-03 -6.5381168001003342471477708e-01 -7.5301515347052302984387495e-02 -6.5381168001003342471477708e-01 -7.5301515347052302984387495e-02 -4.8718148868256379302454917e-02 2.6938007149351961277972123e-02
1.4150000000000000000000000e+02 -1.7018886804512503574393634e-01 -1.6056683289811879769559688e-03 -6.5443675779494847599693230e-01 -2.3459855252756536131419907e-02 -6.5443675779494847599693230e-01 -2.3459855252756536131419907e-02 -5.4250597647682023694226672e-02 2.1272841883310491389869057e-02
1.4165000000000000568434189e+02 -1.7786843476569719202373676e-01 1.0998422449258853095255262e-03 -6.5044697953075103491471509e-01 2.7128594970955585696792411e-02 -6.5044697953075103491471509e-01 2.7128594970955585696792411e-02 -6.2293989663920502908300847e-02 1.7258591528694276068245372e-02
1.4180000000000001136868377e+02 -1.8436905747640597308389943e-01 5.6637968241318691065000479e-03 -6.4270367041634579585718257e-01 7.6891504393420906371403589e-02 -6.4270367041634579585718257e-01 7.6891504393420906371403589e-02 -6.8176067602341877682547988e-02 1.6295560757441283905588847e-02
1.4194999999999998863131623e+02 -1.8869624893911962626447121e-01 1.0961885661146825859946219e-02 -6.3037134692770280253171222e-01 1.2476639383482515666123902e-01 -6.3037134692770280253171222e-01 1.2476639383482515666123902e-01 -7.3033539781924311506955405e-02 1.3270605178277447913637310e-02
1.4209999999999999431565811e+02 -1.9216758068186090557816215e-01 1.7152673455004922853373017e-02 -6.1496165392785007153264587e-01 1.7039662901318797239014202e-01 -6.1496165392785007153264587e-01 1.7039662901318797239014202e-01 -7.7076150993663342103623393e-02 1.0273212242062401688968976e-02
1.4225000000000000000000000e+02 -1.9382420068526792777952039e-01 2.4398769584902099682999221e-02 -5.9609680391997765802614140e-01 2.1363889731351345946386289e-01 -5.9609680391997765802614140e-01 2.1363889731351345946386289e-01 -8.3304887978303029938409452e-02 6.9892971064896367711094527e-03
1.4240000000000000568434189e+02 -1.9411814599275950543599834e-01 3.0893111456183657698160161e-02 -5.7530607529485378037747978e-01 2.5422632895547375708744653e-01 -5.7530607529485378037747978e-01 2.5422632895547375708744653e-01 -8.9568675424448671029686864e-02 6.7785022737340636794778348e-03
1.4255000000000001136868377e+02 -1.9368337190559672955636472e-01 3.7564038229714477590270860e-02 -5.5247776420712080280850387e-01 2.9296248428886001446969090e-01 -5.5247776420712080280850387e-01 2.9296248428886001446969090e-01 -9.3808032527862392213613418e-02 8.2787171939465113018608022e-03
1.4269999999999998863131623e+02 -1.9161884859913522194396762e-01 4.4317196766308922240007462e-02 -5.2691095202272208997129610e-01 3.2866838878338316964899946e-01 -5.2691095202272208997129610e-01 3.2866838878338316964899946e-01 -9.5422041409214730656174197e-02 1.1038120486098080413883693e-02
1.4284999999999999431565811e+02 -1.8851247001312126938543656e-01 5.1303154721630724044434402e-02 -5.0096736877307446178519967e-01 3.6134444523689168704549957e-01 -5.0096736877307446178519967e-01 3.6134444523689168704549957e-01 -9.2547850828138475409723185e-02 1.3835280161245503208200525e-02
1.4300000000000000000000000e+02 -1.8215194323365543893622487e-01 5.7369267324866843327235699e-02 -4.7495943380322730442699708e-01 3.9386870072823099153680459e-01 -4.7495943380322730442699708e-01 3.9386870072823099153680459e-01 -8.7968477134134387407371491e-02 1.1010493476944653579163713e-02
1.4315000000000000568434189e+02 -1.7435211330106623051072745e-01 6.0653908367222057751444453e-02 -4.4645504040412237189983102e-01 4.2625057549726269590095740e-01 -4.4645504040412237189983102e-01 4.2625057549726269590095740e-01 -8.3859595354554838930738470e-02 9.8737578491910719946655917e-03
1.4330000000000001136868377e+02 -1.6731309367672456134279457e-01 6.1145886697040505164402191e-02 -4.1506264232634809685507093e-01 4.5630539636995065544411432e-01 -4.1506264232634809685507093e-01 4.5630539636995065544411432e-01 -7.8387129829211102394204147e-02 5.2240129267315509736802071e-03
1.4344999999999998863131623e+02 -1.6097986852741949514999931e-01 6.0519845343862926911882028e-02 -3.8233669831559907725804237e-01 4.8273830358818825558842036e-01 -3.8233669831559907725804237e-01 4.8273830358818825558842036e-01 -7.4722416005764971669300678e-02 6.1307111829883261574364317e-04
1.4359999999999999431565811e+02 -1.5562889208878649682787909e-01 5.8841210665633171539301571e-02 -3.4937141889802014738108937e-01 5.0791182053638628257630216e-01 -3.4937141889802014738108937e-01 5.0791182053638628257630216e-01 -6.9331434061551067138395865e-02 -2.6169201960492610367636779e-03
1.4375000000000000000000000e+02 -1.5058752954533610735055049e-01 5.6933960008397746510588888e-02 -3.1420610392996972670687228e-01 5.3329987307610415836478523e-01 -3.1420610392996972670687228e-01 5.3329987307610415836478523e-01 -6.1706985813118273020982940e-02 -1.0070398287533902439983002e-02
1.4390000000000000568434189e+02 -1.4625432278435590571774583e-01 5.3461012361705723128224577e-02 -2.7658677981622004082851163e-01 5.5597894263375946533045635e-01 -2.7658677981622004082851163e-01 5.5597894263375946533045635e-01 -5.8226861229164830757731863e-02 -1.8704685437355490773558842e-02
1.4405000000000001136868377e+02 -1.4314966818357349742640849e-01 4.9167547451145196535371440e-02 -2.3783364112602964346443457e-01 5.7632949625812246452483123e-01 -2.3783364112602964346443457e-01 5.7632949625812246452483123e-01 -5.6307294783521560921357718e-02 -2.5900144647542026887787614e-02
1.4419999999999998863131623e+02 -1.4134691154228742893117499e-01 4.4567409754913051012081837e-02 -1.9696561276063645484768472e-01 5.9540407511377479998770923e-01 -1.9696561276063645484768472e-01 5.9540407511377479998770923e-01 -5.4144471004968774963117539e-02 -3.1483168544164094604376203e-02
1.4434999999999999431565811e+02 -1.4093721302532336014934344e-01 4.0181122742897673605355635e-02 -1.5305651072576043070228025e-01 6.1199309757218589567173694e-01 -1.5305651072576043070228025e-01 6.1199309757218589567173694e-01 -5.2459554880575708091239306e-02 -3.5553489287672303265086526e-02
1.4450000000000000000000000e+02 -1.4247101161533048951923774e-01 3.6176828522714754576838914e-02 -1.0679314835875701461542775e-01 6.2436594717635518492215851e-01 -1.0679314835875701461542775e-01 6.2436594717635518492215851e-01 -4.9513517207839287392889815e-02 -3.7875966079643608175331337e-02
1.4465000000000000568434189e+02 -1.4405297437162112306197059e-01 3.3759093040993615186806664e-02 -5.9908989681955807093949318e-02 6.3205895569893777441450311e-01 -5.9908989681955807093949318e-02 6.3205895569893777441450311e-01 -4.5578316520279320289699143e-02 -3.8594409450351675749946168e-02
1.4480000000000001136868377e+02 -1.4597065080306284579059195e-01 3.1648208888454959497593677e-02 -1.2135648279126909701575165e-02 6.3709920378498563486857620e-01 -1.2135648279126909701575165e-02 6.3709920378498563486857620e-01 -4.0383899393090880169943091e-02 -3.9852472787669776521646270e-02
1.4494999999999998863131623e+02 -1.4813900466590676496814183e-01 2.9989070752895724547570921e-02 3.6856011722349736603465686e-02 6.3753000554054450876861893e-01 3.6856011722349736603465686e-02 6.3753000554054450876861893e-01 -3.4766814912212083699127874e-02 -4.0051305734871492369997270e-02
1.4509999999999999431565811e+02 -1.5138935107611467545396522e-01 2.8746818291821768509564095e-02 8.5385096518204459115075622e-02 6.3333948976403298125603669e-01 8.5385096518204459115075622e-02 6.3333948976403298125603669e-01 -2.9123052701362887872971186e-02 -3.9035106229236525565706728e-02
1.4525000000000000000000000e+02 -1.5442979756081559594704800e-01 2.8446345367711671492383374e-02 1.3083732658251101543811501e-01 6.2410443334591580999415328e-01 1.3083732658251101543811501e-01 6.2410443334591580999415328e-01 -2.1714866769124003403890200e-02 -3.6071197889952187620732360e-02
1.4540000000000000568434189e+02 -1.5837321485477384719331440e-01 3.0730571497663151936396986e-02 1.7702148773646519952507106e-01 6.1372958032255386928710550e-01 1.7702148773646519952507106e-01 6.1372958032255386928710550e-01 -1.3268083446022156668409053e-02 -3.3417252069483108223302281e-02
1.4555000000000001136868377e+02 -1.6065866584151122786749966e-01 3.5917493744898630614326152e-02 2.2228085455816237736570429e-01 5.9937688041459846743919115e-01 2.2228085455816237736570429e-01 5.9937688041459846743919115e-01 -4.4865861243810313888080721e-03 -2.7678102362629374011415706e-02
1.4569999999999998863131623e+02 -1.5876343688352645422412479e-01 4.1491721185115397474429955e-02 2.6753074674541765798352344e-01 5.8065349601795246403668216e-01 2.6753074674541765798352344e-01 5.8065349601795246403668216e-01 9.0583648747280011426230573e-03 -2.1095559217586056649507142e-02
1.4584999999999999431565811e+02 -1.5607669438875237943875618e-01 4.3373264872272818126752725e-02 3.0978983579351510035948536e-01 5.5902261719015489127571072e-01 3.0978983579351510035948536e-01 5.5902261719015489127571072e-01 2.7147497317151721152317378e-02 -1.7853334907060966485481401e-02
1.4600000000000000000000000e+02 -1.5430627748882175254152571e-01 4.3946437158629246544361280e-02 3.4988402452412975529583150e-01 5.3533027166084579118177089e-01 3.4988402452412975529583150e-01 5.3533027166084579118177089e-01 4.3976637822589197124312221e-02 -1.8966089067715994481710950e-02
1.4615000000000000568434189e+02 -1.5374924582685889351552078e-01 4.3745072089047015717611089e-02 3.8984378564106414444268012e-01 5.0949391142421174283327900e-01 3.8984378564106414444268012e-01 5.0949391142421174283327900e-01 5.7522715341051210147238493e-02 -2.1438322273642944348903683e-02
1.4630000000000001136868377e+02 -1.5422596259604945401200382e-01 4.4491361040517318770071142e-02 4.2849719337388159079438310e-01 4.7894370964183102801214886e-01 4.2849719337388159079438310e-01 4.7894370964183102801214886e-01 6.9178156969247270313694287e-02 -2.2851627655760386320649147e-02
1.4644999999999998863131623e+02 -1.5393432816623003889233701e-01 4.5730917731300627093737887e-02 4.6299211864876660404988229e-01 4.4525442835717748968349383e-01 4.6299211864876660404988229e-01 4.4525442835717748968349383e-01 8.0667890674441439236019846e-02 -2.2246417050161396838925398e-02
1.4659999999999999431565811e+02 -1.5268286986177584396706663e-01 4.6450251343805787351826098e-02 4.9436872966771783222128533e-01 4.1019671756134862272702435e-01 4.9436872966771783222128533e-01 4.1019671756134862272702435e-01 9.3813628213743754935549646e-02 -2.2123989673316402787550672e-02
1.4675000000000000000000000e+02 -1.5253622925591750481011388e-01 4.7498051235699029204440080e-02 5.2594541961824481379750296e-01 3.7266519094223965469225845e-01 5.2594541961824481379750296e-01 3.7266519094223965469225845e-01 1.0490833008509825585719000e-01 -2.3863448202648570445338905e-02
1.4690000000000000568434189e+02 -1.5174832369116800223629582e-01 4.7377654481277522990900763e-02 5.5196567666699558607490417e-01 3.3066974892377393180353806e-01 5.5196567666699558607490417e-01 3.3066974892377393180353806e-01 1.1522043914710686229874170e-01 -2.6469904080004606067300088e-02
1.4705000000000001136868377e+02 -1.5068619887049172767490290e-01 4.6925459678772853122641351e-02 5.7306839206939730324563698e-01 2.8937450591261631993589276e-01 5.7306839206939730324563698e-01 2.8937450591261631993589276e-01 1.2326717597356702527111594e-01 -2.8585932314671283482887532e-02
1.4719999999999998863131623e+02 -1.5178838365705102364522361e-01 4.6674728817715165074542227e-02 5.9465433714384619001691590e-01 2.4726578591384107408401860e-01 5.9465433714384619001691590e-01 2.4726578591384107408401860e-01 1.2929856290787289374577540e-01 -2.9962933784201815218262155e-02
1.4734999999999999431565811e+02 -1.5382082049224593545133644e-01 4.6469743320819302534463446e-02 6.1414901557404499854442292e-01 2.0175713793601557366486077e-01 6.1414901557404499854442292e-01 2.0175713793601557366486077e-01 1.3381317196587130813334454e-01 -2.9821789082314063140666249e-02
1.4750000000000000000000000e+02 -1.5645984322271846989060862e-01 4.8439083155264593683053675e-02 6.2912753754982631004821769e-01 1.5278138753242231917539584e-01 6.2912753754982631004821769e-01 1.5278138753242231917539584e-01 1.3933284513392915626717183e-01 -2.8225229973133640626326013e-02
1.4765000000000000568434189e+02 -1.5981989218649289563600746e-01 5.2127794517388317818706867e-02 6.3951925927951691619455232e-01 1.0399929566190362073552222e-01 6.3951925927951691619455232e-01 1.0399929566190362073552222e-01 1.4499168503653137030084963e-01 -2.8859504677705098002471473e-02
1.4780000000000001136868377e+02 -1.6162062012335529082029950e-01 5.7468442449436364649617559e-02 6.4649832328331224839956803e-01 5.4803570168143689311790467e-02 6.4649832328331224839956803e-01 5.4803570168143689311790467e-02 1.4898944572412287090656946e-01 -3.2495791165052446969330191e-02
1.4794999999999998863131623e+02 -1.6175335246531541422143619e-01 6.3886710916351618916309008e-02 6.4977024791321513763620032e-01 2.7925982191933408638195857e-03 6.4977024791321513763620032e-01 2.7925982191933408638195857e-03 1.5084291691656112610608886e-01 -3.5073964886739375512725303e-02
1.4809999999999999431565811e+02 -1.5970068188473762749168827e-01 7.0573270772808033290957042e-02 6.4715726028903630684396830e-01 -4.9675649043820151173900257e-02 6.4715726028903630684396830e-01 -4.9675649043820151173900257e-02 1.5115977673482461351994743e-01 -3.9047747509529641407599598e-02
1.4825000000000000000000000e+02 -1.5593851286214449602951504e-01 7.6519254092261707045352637e-02 6.3921447553323373913514160e-01 -1.0039063399622376315800665e-01 6.3921447553323373913514160e-01 -1.0039063399622376315800665e-01 1.4883342849677602681701671e-01 -4.4577256842160781213912912e-02
1.4840000000000000568434189e+02 -1.5140774368029019658621337e-01 8.0730652532492841455535881e-02 6.2904795303813187956620823e-01 -1.4871381528851995712514622e-01 6.2904795303813187956620823e-01 -1.4871381528851995712514622e-01 1.4209500646972950121948998e-01 -5.1560559682282625093563411e-02
1.4855000000000001136868377e+02 -1.4660398185324871600521135e-01 8.3079117054840584399855175e-02 6.1580361316872067600769469e-01 -1.9622174208124298910860261e-01 6.1580361316872067600769469e-01 -1.9622174208124298910860261e-01 1.3123427893055344961581454e-01 -5.7275036639914053693267704e-02
1.4869999999999998863131623e+02 -1.4202694765029547085966044e-01 8.4805172496503808399204161e-02 5.9792405380782931434424654e-01 -2.4234999122909628432864793e-01 5.9792405380782931434424654e-01 -2.4234999122909628432864793e-01 1.1775089549221398610434619e-01 -6.2500104223382160761879334e-02
1.4884999999999999431565811e+02 -1.3740941187822733327017488e-01 8.6468814582232433885167211e-02 5.7677462791992595292356327e-01 -2.8599218345595256440816456e-01 5.7677462791992595292356327e-01 -2.8599218345595256440816456e-01 9.8819500184886346905166477e-02 -6.7379959556113727670023650e-02
1.4900000000000000000000000e+02 -1.3225880208366419532595160e-01 8.6665114038472212953934104e-02 5.5339247918698275530147157e-01 -3.2778718659534250567944014e-01 5.5339247918698275530147157e-01 -3.2778718659534250567944014e-01 7.4265795302242115782931364e-02 -6.7689105371515109754732009e-02
1.4915000000000000568434189e+02 -1.2865590382301730909553328e-01 8.5702375755158696768454263e-02 5.2750474376847589219607926e-01 -3.6775658811391331859397269e-01 5.2750474376847589219607926e-01 -3.6775658811391331859397269e-01 5.1138621671181203054423747e-02 -5.8966756192683898729622882e-02
1.4930000000000001136868377e+02 -1.2577419981186563346930996e-01 8.5129761525758296247801127e-02 4.9896414315851994603079334e-01 -4.0582078435167318053444774e-01 4.9896414315851994603079334e-01 -4.0582078435167318053444774e-01 3.1398184598471323702995051e-02 -4.8645643115270371936720295e-02
1.4944999999999998863131623e+02 -1.2377066026013827659824074e-01 8.5365829083634409135683541e-02 4.6791389701453961480481780e-01 -4.4154995093845550435673886e-01 4.6791389701453961480481780e-01 -4.4154995093845550435673886e-01 1.2858107526902634934473646e-02 -3.9257717067189085158318562e-02
1.4959999999999999431565811e+02 -1.2124346478124206627491333e-01 8.6005589107286256611573094e-02 4.3447044670047030301418545e-01 -4.7551720345070741524651226e-01 4.3447044670047030301418545e-01 -4.7551720345070741524651226e-01 -6.0529524865982828329968868e-03 -2.6227932247103423468725936e-02
1.4975000000000000000000000e+02 -1.1888827810912286353506317e-01 8.5446359282826497838492230e-02 3.9955536940090990993823539e-01 -5.0723574211409827583452170e-01 3.9955536940090990993823539e-01 -5.0723574211409827583452170e-01 -1.9350121728456005226748360e-02 -1.3245545831809332412709601e-02
1.4990000000000000568434189e+02 -1.1672920096748100327044284e-01 8.5524013375310570239662411e-02 3.6133324750507439526714393e-01 -5.3767806994216138516407000e-01 3.6133324750507439526714393e-01 -5.3767806994216138516407000e-01 -3.2420825377058280769571041e-02 -3.9001671073472712197860446e-03
1.5005000000000001136868377e+02 -1.1434812815376826922175724e-01 8.6727509552635917433605073e-02 3.1909121565171377765679495e-01 -5.6490120065320015285692534e-01 3.1909121565171377765679495e-01 -5.6490120065320015285692534e-01 -4.5139064874505044344665805e-02 5.5232787894029756678437870e-03
1.5019999999999998863131623e+02 -1.1130173109408290910149475e-01 8.6867168603595265596872821e-02 2.7588587448658868916950837e-01 -5.8723342513097664951970955e-01 2.7588587448658868916950837e-01 -5.8723342513097664951970955e-01 -5.5881707460976225154691832e-02 1.5280144286086178029293592e-02
1.5034999999999999431565811e+02 -1.0932317150036657826817077e-01 8.7171385442902940554610325e-02 2.3113683084572311798865485e-01 -6.0821687388496759041345285e-01 2.3113683084572311798865485e-01 -6.0821687388496759041345285e-01 -6.5351720598148199670163194e-02 2.2965619809182644117662164e-02
1.5050000000000000000000000e+02 -1.0832844570139242568185267e-01 8.7703296225454668855192608e-02 1.8343362131100132694783156e-01 -6.2640704636724453546747782e-01 1.8343362131100132694783156e-01 -6.2640704636724453546747782e-01 -7.3792939365530399453696475e-02 2.8856625111570798070115274e-02
1.5065000000000000568434189e+02 -1.0571615483487763198500176e-01 8.8613135881539462079814484e-02 1.3267732157594075426132463e-01 -6.3858578047573866243169505e-01 1.3267732157594075426132463e-01 -6.3858578047573866243169505e-01 -8.2995449625151151984425724e-02 3.3051771339830421370109548e-02
1.5080000000000001136868377e+02 -1.0330688292388517934838887e-01 8.9681950044857516868290759e-02 8.3113973244227756786983718e-02 -6.4543482739571589323901435e-01 8.3113973244227756786983718e-02 -6.4543482739571589323901435e-01 -9.2859871623367784554403670e-02 3.7685318751668847592206646e-02
1.5094999999999998863131623e+02 -1.0056457945215264981886349e-01 9.0898309681019889838538006e-02 3.3512455373137337022448889e-02 -6.5006323173385482938613222e-01 3.3512455373137337022448889e-02 -6.5006323173385482938613222e-01 -1.0064336403051320212309605e-01 4.1175492168743992038582036e-02
1.5109999999999999431565811e+02 -9.7507323020094377463706792e-02 9.0934044125482532683335535e-02 -1.6405745940945917760167561e-02 -6.5041815350858667166278337e-01 -1.6405745940945917760167561e-02 -6.5041815350858667166278337e-01 -1.0903437834363803593529241e-01 4.4290404604635603968976199e-02
1.5125000000000000000000000e+02 -9.5586029237013092618724386e-02 9.1045321906110310283821718e-02 -6.7286251906220756469068078e-02 -6.4599906482051183687076445e-01 -6.7286251906220756469068078e-02 -6.4599906482051183687076445e-01 -1.1860769174964853889253646e-01 4.8207948892724047929014830e-02
1.5140000000000000568434189e+02 -9.3384740396070503587466760e-02 9.2590093378014076686000067e-02 -1.1711842983165696163716518e-01 -6.3655803987579251401740521e-01 -1.1711842983165696163716518e-01 -6.3655803987579251401740521e-01 -1.2571305985578540287406213e-01 5.4255279744587228685226421e-02
1.5155000000000001136868377e+02 -9.0711970074671618990969080e-02 9.4057409764384675154857973e-02 -1.6482998876838503288233539e-01 -6.2404405266950280228854808e-01 -1.6482998876838503288233539e-01 -6.2404405266950280228854808e-01 -1.2972796692126584150450697e-01 6.0043830545097175155344615e-02
1.5169999999999998863131623e+02 -8.7179094355031475083173120e-02 9.5503822512459174420840213e-02 -2.1162395022989274884217537e-01 -6.0854274462132185163909526e-01 -2.1162395022989274884217537e-01 -6.0854274462132185163909526e-01 -1.3170275384030027954196385e-01 6.5510313402212611011421473e-02
1.5184999999999999431565811e+02 -8.3218549311860193218315374e-02 9.7063889049344681536624080e-02 -2.5678198146085778885705508e-01 -5.8964581798174198201678564e-01 -2.5678198146085778885705508e-01 -5.8964581798174198201678564e-01 -1.3037575112206795102665069e-01 7.1043869346830476607657090e-02
1.5200000000000000000000000e+02 -7.7727631123121643241802303e-02 9.7657708579935054160614527e-02 -2.9943419146601657487849479e-01 -5.6703106040316331171169395e-01 -2.9943419146601657487849479e-01 -5.6703106040316331171169395e-01 -1.2697419840293161508171238e-01 7.4290747234392384701351375e-02
1.5215000000000000568434189e+02 -7.2700543977954570906696574e-02 9.6710644981284690779865798e-02 -3.4026122905696504217232246e-01 -5.4268728929893916834714673e-01 -3.4026122905696504217232246e-01 -5.4268728929893916834714673e-01 -1.2373452878114531150455235e-01 7.8102860000539023332954969e-02
1.5230000000000001136868377e+02 -6.7791685742416590843006929e-02 9.5023444706159754247210003e-02 -3.8018411100994536910846477e-01 -5.1547575360874797745225351e-01 -3.8018411100994536910846477e-01 -5.1547575360874797745225351e-01 -1.1731118293768702520729619e-01 8.1970427081509561473282588e-02
1.5244999999999998863131623e+02 -6.4559432888636039682417334e-02 9.3261808055790124116768425e-02 -4.1820360784530802300551500e-01 -4.8491506251368965418890866e-01 -4.1820360784530802300551500e-01 -4.8491506251368965418890866e-01 -1.0834063994293435806426373e-01 8.5959526184300277806826784e-02
1.5259999999999999431565811e+02 -6.1242571672326995280144502e-02 9.2087959290134621670453896e-02 -4.5357640235823115659741234e-01 -4.5167700684220496443188608e-01 -4.5357640235823115659741234e-01 -4.5167700684220496443188608e-01 -9.6737324976213651117618042e-02 8.9415468709988149553780090e-02
1.5275000000000000000000000e+02 -5.7250376058776170085096169e-02 9.0912013193587298820474984e-02 -4.8651084806245303848726280e-01 -4.1711685954660654429559941e-01 -4.8651084806245303848726280e-01 -4.1711685954660654429559941e-01 -8.2343914918904206889926911e-02 9.2230644538402753451755700e-02
1.5290000000000000568434189e+02 -5.2757908917033621842840319e-02 8.9156727115435166486356877e-02 -5.1788975030828698908891283e-01 -3.7954521927505302514305185e-01 -5.1788975030828698908891283e-01 -3.7954521927505302514305185e-01 -6.4332171671125898404497434e-02 9.2428919545476939667594252e-02
1.5305000000000001136868377e+02 -4.9525454481508385251586901e-02 8.6935410332543733291643662e-02 -5.4729303046128618959187406e-01 -3.3825343608264157868603661e-01 -5.4729303046128618959187406e-01 -3.3825343608264157868603661e-01 -4.5078599602928856593386797e-02 9.0327400683840874950902844e-02
1.5319999999999998863131623e+02 -4.5667207328414123612692066e-02 8.3785969640696719706873807e-02 -5.7214827186685202065064004e-01 -2.9479604377377366386525637e-01 -5.7214827186685202065064004e-01 -2.9479604377377366386525637e-01 -2.4473061700596789730388636e-02 8.4463538624057463155558878e-02
1.5334999999999999431565811e+02 -4.2940644923272805466574198e-02 8.0062779942382630848918268e-02 -5.9385530724855584150390087e-01 -2.4938608743830287250986544e-01 -5.9385530724855584150390087e-01 -2.4938608743830287250986544e-01 -4.6120142266242664455533351e-03 7.7016524764428107019398340e-02
1.5350000000000000000000000e+02 -4.1507325377000379995617863e-02 7.6234694490679155709500492e-02 -6.1131358099759192104016847e-01 -2.0207634700175169939484476e-01 -6.1131358099759192104016847e-01 -2.0207634700175169939484476e-01 1.7043101743208166620746624e-02 6.6932171998529521594889502e-02
1.5365000000000000568434189e+02 -4.1003109256163836060515848e-02 7.3162251514010609443339206e-02 -6.2454499883991665409865846e-01 -1.5270290637992864346550448e-01 -6.2454499883991665409865846e-01 -1.5270290637992864346550448e-01 3.5669492560027125926946923e-02 5.3002994939046643718683072e-02
1.5380000000000001136868377e+02 -4.1009621171720300747409738e-02 7.1592834757904247333648584e-02 -6.3287217128591832793205185e-01 -1.0351300036915624114275403e-01 -6.3287217128591832793205185e-01 -1.0351300036915624114275403e-01 5.0825928084886111413265297e-02 3.7149563923769737816549252e-02
1.5394999999999998863131623e+02 -4.0295906544580283037415569e-02 7.0462194561064200870603713e-02 -6.3781306651736702217903030e-01 -5.3937602468323499194102766e-02 -6.3781306651736702217903030e-01 -5.3937602468323499194102766e-02 6.2807884209425277055593995e-02 2.2030767847258141828303835e-02
1.5409999999999999431565811e+02 -3.9720428081093203664941882e-02 6.9621757627773117604874642e-02 -6.3835914492506717898834268e-01 -4.4560141807947258735245200e-03 -6.3835914492506717898834268e-01 -4.4560141807947258735245200e-03 7.3405257745889809783967905e-02 8.8845446155701567753082415e-03
1.5425000000000000000000000e+02 -3.9060418901492227616856212e-02 6.9695355222732777167315987e-02 -6.3450210296901177198236610e-01 4.4168651941098743818336914e-02 -6.3450210296901177198236610e-01 4.4168651941098743818336914e-02 8.3304134567765794616711617e-02 -5.8231375370144050976350947e-03
1.5440000000000000568434189e+02 -3.7611845850667499635555657e-02 7.0560725373928462333950051e-02 -6.2774050147631010876381197e-01 9.0979203691219062699602205e-02 -6.2774050147631010876381197e-01 9.0979203691219062699602205e-02 8.9116524136016769808144034e-02 -2.0301318135406545839494186e-02
1.5455000000000001136868377e+02 -3.4856745690139266657947559e-02 7.1401230163377960025172797e-02 -6.1823430476272078770705320e-01 1.3770104036668817659716524e-01 -6.1823430476272078770705320e-01 1.3770104036668817659716524e-01 9.2831347729581195626913370e-02 -3.1387248960574667955292227e-02
1.5469999999999998863131623e+02 -3.1171826021752651464380435e-02 7.1714916719673393874501244e-02 -6.0489707410561111000646406e-01 1.8382720065062793657340023e-01 -6.0489707410561111000646406e-01 1.8382720065062793657340023e-01 9.7852505280107526797195305e-02 -4.2435404984143068607416183e-02
1.5484999999999999431565811e+02 -2.7066254743054733722384952e-02 7.0944497583275048513407057e-02 -5.8794416334885368780049930e-01 2.2913548807877825996826004e-01 -5.8794416334885368780049930e-01 2.2913548807877825996826004e-01 1.0041000126894250588094337e-01 -5.4944295062159378972843626e-02
1.5500000000000000000000000e+02 -2.3140197456356290800494335e-02 6.9263511419634576915527191e-02 -5.6728140128785486950846462e-01 2.7194820824795523650507789e-01 -5.6728140128785486950846462e-01 2.7194820824795523650507789e-01 1.0024279966678484310449448e-01 -6.5258106617917033265285909e-02
1.5515000000000000568434189e+02 -1.9907309517522713687709413e-02 6.7065070416592556523660562e-02 -5.4456142283207875642858653e-01 3.1220928292820748772840034e-01 -5.4456142283207875642858653e-01 3.1220928292820748772840034e-01 9.6734937239642396211714015e-02 -7.5775115925713135145436183e-02
1.5530000000000001136868377e+02 -1.7290114120827582838701986e-02 6.5140854662010583275844056e-02 -5.1917624440645648853376315e-01 3.5196892133330942575852873e-01 -5.1917624440645648853376315e-01 3.5196892133330942575852873e-01 8.9751001476375408261176858e-02 -8.2926921128168212815623406e-02
1.5544999999999998863131623e+02 -1.4819635285683838837877957e-02 6.4249367692497033610621315e-02 -4.8993958512640634062051959e-01 3.8988039258226098171533636e-01 -4.8993958512640634062051959e-01 3.8988039258226098171533636e-01 8.3602174883658633697258722e-02 -8.7041730905243933080761565e-02
1.5559999999999999431565811e+02 -1.0747399441688100518721427e-02 6.3493404821132970461405876e-02 -4.5859566259083300865384558e-01 4.2488116329918812485999524e-01 -4.5859566259083300865384558e-01 4.2488116329918812485999524e-01 7.5611827514944787709261220e-02 -9.0512882096025093492386304e-02
1.5575000000000000000000000e+02 -5.8823487231840013156336511e-03 6.1962068075881462925202925e-02 -4.2595516379651809923956307e-01 4.5750882754009641883996551e-01 -4.2595516379651809923956307e-01 4.5750882754009641883996551e-01 6.4047362842320515463612196e-02 -9.1237630266525163169610835e-02
1.5590000000000000568434189e+02 -6.6166852893868172147406881e-04 5.9501577792260382238076488e-02 -3.9058327036802803489123903e-01 4.8887124427867900688937652e-01 -3.9058327036802803489123903e-01 4.8887124427867900688937652e-01 5.2486617745308050686503520e-02 -8.7229121173753837448217041e-02
1.5605000000000001136868377e+02 4.7347806262901630247608153e-03 5.6031510192290759353461738e-02 -3.5109048847396567838430315e-01 5.1714721335194124840484164e-01 -3.5109048847396567838430315e-01 5.1714721335194124840484164e-01 4.2522295616312509591860902e-02 -8.1018144049578633136832195e-02
1.5619999999999998863131623e+02 1.0208600791423522169409921e-02 5.0986783604116986401422196e-02 -3.0988763132353758233961116e-01 5.4106725028004798438985290e-01 -3.0988763132353758233961116e-01 5.4106725028004798438985290e-01 3.1829057526750748063903984e-02 -7.2905439426776186273571057e-02
1.5634999999999999431565811e+02 1.4637317262851546467716801e-02 4.4307985691437713759999184e-02 -2.6779724464935067418380754e-01 5.6267281339594921174551700e-01 -2.6779724464935067418380754e-01 5.6267281339594921174551700e-01 2.2877718008387833842354198e-02 -6.2164670046684841753226181e-02
1.5650000000000000000000000e+02 1.7908840254085112847493022e-02 3.6582197329956087084035232e-02 -2.2370131551488567356322790e-01 5.8208404631707111320793047e-01 -2.2370131551488567356322790e-01 5.8208404631707111320793047e-01 1.4157540313626520295242628e-02 -4.9152194824081535395876585e-02
1.5665000000000000568434189e+02 1.8796724621866524318480884e-02 2.8928658735326424206180107e-02 -1.7798591889504136731581241e-01 5.9750095054573348907211994e-01 -1.7798591889504136731581241e-01 5.9750095054573348907211994e-01 6.8451775732474729602161645e-03 -3.3968400868175867290954528e-02
1.5680000000000001136868377e+02 1.8006212885127763356774011e-02 2.1708240049237357421896277e-02 -1.3073071330576313542337630e-01 6.0774094016896773595703962e-01 -1.3073071330576313542337630e-01 6.0774094016896773595703962e-01 2.6760492731823389521428336e-03 -1.8168892087372785076881954e-02
1.5694999999999998863131623e+02 1.6609296865256618913608833e-02 1.6103588728314199157720665e-02 -8.3834720257632791562407704e-02 6.1474280738550890479388045e-01 -8.3834720257632791562407704e-02 6.1474280738550890479388045e-01 9.2785042713259456787291968e-05 -1.7089026823116524808621186e-03
1.5709999999999999431565811e+02 1.5304183256078523686638526e-02 1.1560831948656450848811339e-02 -3.5737893424385810958732179e-02 6.1889784938491920751602038e-01 -3.5737893424385810958732179e-02 6.1889784938491920751602038e-01 5.8063889442749405753879666e-04 1.4706923506735365692055240e-02
1.5725000000000000000000000e+02 1.4468743976568493661560844e-02 7.0160999009917703744809714e-03 1.2632821823049254425508359e-02 6.1864247202485234122804059e-01 1.2632821823049254425508359e-02 6.1864247202485234122804059e-01 3.2217777010600944127827194e-03 2.8298508663906873916715767e-02
1.5740000000000000568434189e+02 1.3737409405722321095733029e-02 2.4708756626169309233986837e-03 5.9503726235564137481137692e-02 6.1409189577051148667408143e-01 5.9503726235564137481137692e-02 6.1409189577051148667408143e-01 5.4117406927800450894272544e-03 4.1062872652255159866552248e-02
1.5755000000000001136868377e+02 1.2866533743913576015582834e-02 -2.1329389546257473964097073e-03 1.0446459370705707403459428e-01 6.0655952421478342984073606e-01 1.0446459370705707403459428e-01 6.0655952421478342984073606e-01 9.6293509254009729270151752e-03 5.4017278697653679786494507e-02
1.5769999999999998863131623e+02 1.1262346794947541289699799e-02 -7.6252202700022794767953371e-03 1.4869813246071916790214118e-01 5.9632097106221049198637729e-01 1.4869813246071916790214118e-01 5.9632097106221049198637729e-01 1.5016635500962754318221570e-02 6.4333927567272575220869157e-02
1.5784999999999999431565811e+02 8.7001661120744699928764021e-03 -1.3138817088000142446757579e-02 1.9370687478264753123013975e-01 5.8343809452766604017881491e-01 1.9370687478264753123013975e-01 5.8343809452766604017881491e-01 2.0197489843639959000709538e-02 7.2112847057854367882612223e-02
1.5800000000000000000000000e+02 5.1133252016967237207900610e-03 -1.7711026108425655112288410e-02 2.3802516918268534773517331e-01 5.6581643178817297989979807e-01 2.3802516918268534773517331e-01 5.6581643178817297989979807e-01 2.4839961363327976023862576e-02 7.9749773558121336836101989e-02
1.5815000000000000568434189e+02 1.0632577497734080340663354e-03 -2.1208618792720616841318559e-02 2.7964276439230606463581807e-01 5.4539308184653945144049203e-01 2.7964276439230606463581807e-01 5.4539308184653945144049203e-01 3.0899889378644237319937460e-02 8.6632695587377434032205770e-02
1.5830000000000001136868377e+02 -3.6100045110793455016562348e-03 -2.3954563921239173385213661e-02 3.1908756662004472692828472e-01 5.2304860365675431843612841e-01 3.1908756662004472692828472e-01 5.2304860365675431843612841e-01 3.7089317286516050586886450e-02 8.9934816705208156517592499e-02
1.5844999999999998863131623e+02 -9.2731786912943481304694160e-03 -2.5384833651498468765073113e-02 3.5752720870499571370615399e-01 4.9839311455552870455676384e-01 3.5752720870499571370615399e-01 4.9839311455552870455676384e-01 4.0103724855984575203837750e-02 9.2554120149243454540588516e-02
1.5859999999999999431565811e+02 -1.3390601027350110263647309e-02 -2.4514639517654354672338002e-02 3.9571159998865995666150752e-01 4.6910935123453240125357411e-01 3.9571159998865995666150752e-01 4.6910935123453240125357411e-01 4.3476389295340311935689215e-02 9.5217213563568159351291342e-02
1.5875000000000000000000000e+02 -1.5627084163621150769696300e-02 -2.2609067471499738610773989e-02 4.3109148360612381534195947e-01 4.3579852853036310511569695e-01 4.3109148360612381534195947e-01 4.3579852853036310511569695e-01 4.7058446516913821078276214e-02 9.9158794210915349176538314e-02
1.5890000000000000568434189e+02 -1.5872259739671851219711129e-02 -2.0922071675961818187916563e-02 4.6223273080882532060087442e-01 4.0067868019660829448369554e-01 4.6223273080882532060087442e-01 4.0067868019660829448369554e-01 5.3326085017803379062506508e-02 9.9441768980217809525967709e-02
1.5905000000000001136868377e+02 -1.4578260608556770083765741e-02 -2.0793484091021025017553825e-02 4.9121013234895222199227760e-01 3.6448234097425891153676503e-01 4.9121013234895222199227760e-01 3.6448234097425891153676503e-01 5.8391787671665230929907153e-02 9.7238552137110120798801915e-02
1.5919999999999998863131623e+02 -1.3407628845952410112651876e-02 -2.2482598104919548215319125e-02 5.1730115959390610136381383e-01 3.2490159306575172593056777e-01 5.1730115959390610136381383e-01 3.2490159306575172593056777e-01 6.2415112990201158937875192e-02 9.3665020910613211446715809e-02
1.5934999999999999431565811e+02 -1.3125262929383459467591599e-02 -2.5029387741727724542295519e-02 5.3856253488117289407455246e-01 2.8279318018773019760558896e-01 5.3856253488117289407455246e-01 2.8279318018773019760558896e-01 6.3935929578743264101170496e-02 8.7802805972749323193404791e-02
1.5950000000000000000000000e+02 -1.2943218661831481369750563e-02 -2.7383733194740508820608227e-02 5.5571538155711630579958182e-01 2.4015226175564699517828160e-01 5.5571538155711630579958182e-01 2.4015226175564699517828160e-01 6.4689401685391903495947474e-02 8.3248696713604339314507286e-02
1.5965000000000000568434189e+02 -1.2668068006522302873517738e-02 -3.0476147119767992704764126e-02 5.7135844437666816197918251e-01 1.9792225734637730605314232e-01 5.7135844437666816197918251e-01 1.9792225734637730605314232e-01 6.5068000298308642515010547e-02 7.6447925983127607008071891e-02
1.5980000000000001136868377e+02 -1.2320199812360476190886693e-02 -3.3754097745747932424187354e-02 5.8451529502923116332624431e-01 1.5324527242000035576197092e-01 5.8451529502923116332624431e-01 1.5324527242000035576197092e-01 6.4672097915682472124565550e-02 6.9274476059781167625040155e-02
1.5994999999999998863131623e+02 -1.2231960240731695049865024e-02 -3.8796707168182877067952319e-02 5.9281212616359024725198879e-01 1.0762285218682619836183534e-01 5.9281212616359024725198879e-01 1.0762285218682619836183534e-01 6.6145070147340764843413297e-02 6.0289863203987596740329735e-02
1.6009999999999999431565811e+02 -1.3379734673915356577000857e-02 -4.4510333474139296416893785e-02 5.9606048935814504030616945e-01 6.2716711229569399588257284e-02 5.9606048935814504030616945e-01 6.2716711229569399588257284e-02 6.6178224221023748685688304e-02 4.5970771365503253214068735e-02
1.6025000000000000000000000e+02 -1.6002803187631278042379890e-02 -4.9859299447097674140572110e-02 5.9780443863595622566720067e-01 1.8790788181397066747280178e-02 5.9780443863595622566720067e-01 1.8790788181397066747280178e-02 6.0284123183862142747457824e-02 2.8797816423453501816220879e-02
1.6040000000000000568434189e+02 -1.9162772009787467503150182e-02 -5.5880485053292738850672094e-02 5.9677840479191823774840486e-01 -2.7181694853841507214520234e-02 5.9677840479191823774840486e-01 -2.7181694853841507214520234e-02 4.9641223248624043173915510e-02 1.4650384599883242708884268e-02
1.6055000000000001136868377e+02 -2.3657824598406707039544017e-02 -6.2242404981870141922328799e-02 5.9065950409769174545004944e-01 -7.3084765809657115109843062e-02 5.9065950409769174545004944e-01 -7.3084765809657115109843062e-02 3.9182663269293593888420446e-02 2.2441297051455657250718101e-03
1.6069999999999998863131623e+02 -3.0088961388372012506486897e-02 -6.8591574328043344865868391e-02 5.8126087992819575056557824e-01 -1.1563493366866123279734779e-01 5.8126087992819575056557824e-01 -1.1563493366866123279734779e-01 2.7079057598246844551503898e-02 -1.1061720629216996794608185e-02
1.6084999999999999431565811e+02 -3.7517545378388618415588240e-02 -7.3047275284543800033532079e-02 5.6954098008261799801488223e-01 -1.5716698136744616798310403e-01 5.6954098008261799801488223e-01 -1.5716698136744616798310403e-01 1.3053830356715310709314615e-02 -2.4391146030936648042564130e-02
1.6100000000000000000000000e+02 -4.5762113825541295142329545e-02 -7.7572698170721585131381914e-02 5.5576377722813963266901283e-01 -1.9868066613950602361526876e-01 5.5576377722813963266901283e-01 -1.9868066613950602361526876e-01 -2.6277170596695452464697240e-03 -3.5634448896594915490165789e-02
1.6115000000000000568434189e+02 -5.5220509110063674407253842e-02 -8.0906292537708882073310690e-02 5.3821395298683782915105667e-01 -2.3998753001704958842665860e-01 5.3821395298683782915105667e-01 -2.3998753001704958842665860e-01 -1.8192215621607023962047478e-02 -4.6266728992480153637156803e-02
1.6130000000000001136868377e+02 -6.6010997835292462010414738e-02 -8.2578376735387926110831813e-02 5.1612091722972441854011549e-01 -2.8005550416705199401334880e-01 5.1612091722972441854011549e-01 -2.8005550416705199401334880e-01 -3.5841857801704866959280338e-02 -5.4712381684784948399080662e-02
1.6144999999999998863131623e+02 -7.7902898104634910048105212e-02 -8.1420202433923657969749854e-02 4.9114043306556343093660644e-01 -3.1654519670260489183633013e-01 4.9114043306556343093660644e-01 -3.1654519670260489183633013e-01 -5.0099922739621598199999397e-02 -6.1140760752831369018167607e-02
1.6159999999999999431565811e+02 -8.8720104863019691454617544e-02 -7.7829695633771817098178758e-02 4.6576728941494865976480355e-01 -3.4981097603818778196682615e-01 4.6576728941494865976480355e-01 -3.4981097603818778196682615e-01 -6.2796749819878774911963148e-02 -6.8108996188458517662134284e-02
1.6175000000000000000000000e+02 -9.8282791139151559622888499e-02 -7.2750843171198925629639120e-02 4.3826026227350967090501399e-01 -3.8250527812346468703452729e-01 4.3826026227350967090501399e-01 -3.8250527812346468703452729e-01 -7.5325981146389553444464582e-02 -7.5864101909542694390786721e-02
1.6190000000000000568434189e+02 -1.0705394330501040445202676e-01 -6.6749279818835854927172591e-02 4.0692254619656376135594655e-01 -4.1291458176525763779096678e-01 4.0692254619656376135594655e-01 -4.1291458176525763779096678e-01 -8.7401164255973579075842395e-02 -8.3198337838698427360029086e-02
1.6205000000000001136868377e+02 -1.1476791606231993847497819e-01 -5.8292132068929247701305485e-02 3.7523888941128130669611096e-01 -4.3985062710269456909273345e-01 3.7523888941128130669611096e-01 -4.3985062710269456909273345e-01 -9.8802326946934776463749017e-02 -9.0831252624549149721211450e-02
1.6219999999999998863131623e+02 -1.2002327800676750035879792e-01 -4.9065156901246742560118719e-02 3.4363928127777204624138108e-01 -4.6597034736230519280653084e-01 3.4363928127777204624138108e-01 -4.6597034736230519280653084e-01 -1.0992540319617362387649706e-01 -9.8812738855077575372831689e-02
1.6234999999999999431565811e+02 -1.2287622608990035610876390e-01 -3.9740048498363815532297139e-02 3.0965017059982430369657891e-01 -4.9241380841559456715827992e-01 3.0965017059982430369657891e-01 -4.9241380841559456715827992e-01 -1.2015929865280478017197652e-01 -1.0819536437055729538592175e-01
1.6250000000000000000000000e+02 -1.2365724085509786911440955e-01 -2.9753492441170186627585892e-02 2.7201105165956840359342550e-01 -5.1657311761671509398041735e-01 2.7201105165956840359342550e-01 -5.1657311761671509398041735e-01 -1.3251502087071501123638484e-01 -1.1709567604897883064118957e-01
1.6265000000000000568434189e+02 -1.2122603736273432351033819e-01 -2.1692575402654845628802605e-02 2.3177701799327868337208258e-01 -5.3705044698625559185245493e-01 2.3177701799327868337208258e-01 -5.3705044698625559185245493e-01 -1.4551610398631251164225375e-01 -1.2470755889759678469719262e-01
1.6280000000000001136868377e+02 -1.1684567803311304845514940e-01 -1.6512022456242003709547816e-02 1.9004512776671456109056635e-01 -5.5523473372153409055584916e-01 1.9004512776671456109056635e-01 -5.5523473372153409055584916e-01 -1.5807466556181209993425796e-01 -1.3090425993270141113988814e-01
1.6294999999999998863131623e+02 -1.1251958214566808169632139e-01 -1.4203882933579624336939418e-02 1.4513794093742515833866946e-01 -5.7052581677581104546703727e-01 1.4513794093742515833866946e-01 -5.7052581677581104546703727e-01 -1.7364771668753892219783097e-01 -1.3657954851344841773475025e-01
1.6309999999999999431565811e+02 -1.0943501118036150221435321e-01 -1.4722103400448480203799306e-02 9.7358528069156749507051529e-02 -5.8070570003512278489665732e-01 9.7358528069156749507051529e-02 -5.8070570003512278489665732e-01 -1.9052879323266752598087237e-01 -1.3444343359955268635275161e-01
1.6325000000000000000000000e+02 -1.0805598251174580726186036e-01 -1.6789453172321777696396339e-02 5.0030549411010968863244841e-02 -5.8432195705332801161091538e-01 5.0030549411010968863244841e-02 -5.8432195705332801161091538e-01 -2.0375744777820087305642005e-01 -1.2693417760895497892192907e-01
1.6340000000000000568434189e+02 -1.0905167677926762281881423e-01 -2.0429046716520429111119128e-02 4.9893932425878707512256760e-03 -5.8496838226926362036550699e-01 4.9893932425878707512256760e-03 -5.8496838226926362036550699e-01 -2.1196815257266599097363269e-01 -1.1611251528298249802162445e-01
1.6355000000000001136868377e+02 -1.1305266398684796214091364e-01 -2.4540235710707791749740636e-02 -4.1596354888572946439939670e-02 -5.8246500599479200666053202e-01 -4.1596354888572946439939670e-02 -5.8246500599479200666053202e-01 -2.1678431260157121629461585e-01 -1.0253273486891074928184509e-01
1.6369999999999998863131623e+02 -1.2032792669114936168206498e-01 -2.7572038596474991029028345e-02 -8.7547584377605874861316693e-02 -5.7476995596881164107827544e-01 -8.7547584377605874861316693e-02 -5.7476995596881164107827544e-01 -2.1686907890176987390162822e-01 -8.7321923309103766097649668e-02
1.6384999999999999431565811e+02 -1.3036727939627185124393804e-01 -2.8264326025119874269408982e-02 -1.3093991996275963773932460e-01 -5.6254376191977772947439007e-01 -1.3093991996275963773932460e-01 -5.6254376191977772947439007e-01 -2.1260698186696311284826777e-01 -7.2056045707099808383944151e-02
1.6400000000000000000000000e+02 -1.4122109560728679511498740e-01 -2.5341774917401464761734786e-02 -1.6972192438533079128504255e-01 -5.4853059002590165427193369e-01 -1.6972192438533079128504255e-01 -5.4853059002590165427193369e-01 -2.0635337942765985541626605e-01 -5.3443606345956441716626983e-02
1.6415000000000000568434189e+02 -1.5185190084235636320819651e-01 -1.9079226640698186689970584e-02 -2.0872331985670755649664443e-01 -5.3225803321537967782717260e-01 -2.0872331985670755649664443e-01 -5.3225803321537967782717260e-01 -1.9434079367832887696998512e-01 -3.3990353694162901698749835e-02
1.6430000000000001136868377e+02 -1.6182276719919228002986245e-01 -1.1154600967692704371891921e-02 -2.4563502140884718727420477e-01 -5.1338460287660747649596260e-01 -2.4563502140884718727420477e-01 -5.1338460287660747649596260e-01 -1.7997574796992657497618495e-01 -1.6649505051416723516721774e-02
1.6444999999999998863131623e+02 -1.7100618710389231535984322e-01 -4.1799441537909015620400055e-04 -2.8277748224206000760005963e-01 -4.9149825212538045260401987e-01 -2.8277748224206000760005963e-01 -4.9149825212538045260401987e-01 -1.6214601770832282046086448e-01 5.8408086358076977909897787e-04
1.6459999999999999431565811e+02 -1.7820222285227635405924218e-01 1.3150858435135033552842998e-02 -3.1468562529074195488476562e-01 -4.6723380635472472333091787e-01 -3.1468562529074195488476562e-01 -4.6723380635472472333091787e-01 -1.4464907141792726630313837e-01 1.8646103586013856173719816e-02
1.6475000000000000000000000e+02 -1.8189688967194750368605582e-01 2.8165327845166822362532599e-02 -3.4319872761710029651638365e-01 -4.4204766895461533593447712e-01 -3.4319872761710029651638365e-01 -4.4204766895461533593447712e-01 -1.2295312321323485782453844e-01 3.9993753926794523012588911e-02
1.6490000000000000568434189e+02 -1.8236505764987828714929208e-01 4.3209834342849154364962772e-02 -3.7310770900205947331329526e-01 -4.1864722014955696449689526e-01 -3.7310770900205947331329526e-01 -4.1864722014955696449689526e-01 -9.5949732328862086250254038e-02 5.9264043393897965217309576e-02
1.6505000000000001136868377e+02 -1.8108074793041367689383492e-01 5.7231702012607313379000118e-02 -4.0056461069761151172485825e-01 -3.9104267762102401517765315e-01 -4.0056461069761151172485825e-01 -3.9104267762102401517765315e-01 -6.9110196980947710687637198e-02 7.8004284205447388389487173e-02
1.6519999999999998863131623e+02 -1.7824581041760456656675160e-01 7.0975880323595572085615402e-02 -4.2633743844467658634656004e-01 -3.6048721704236541540922190e-01 -4.2633743844467658634656004e-01 -3.6048721704236541540922190e-01 -3.9873835261544088304219713e-02 9.5430055092701401853183540e-02
1.6534999999999999431565811e+02 -1.7310369012080323303237606e-01 8.3265557621915092800790603e-02 -4.5170585988436728896999739e-01 -3.3117152974846264523733907e-01 -4.5170585988436728896999739e-01 -3.3117152974846264523733907e-01 -8.1087494260004815832543201e-03 1.1162443490283370517435202e-01
1.6550000000000000000000000e+02 -1.6660329148807206944837844e-01 9.4373007196172031818548476e-02 -4.7490054487465566124271277e-01 -3.0008373713913477631720639e-01 -4.7490054487465566124271277e-01 -3.0008373713913477631720639e-01 2.5956588853517863213493655e-02 1.2545759621743898803991613e-01
1.6565000000000000568434189e+02 -1.5963398494676431238481484e-01 1.0350281619727891291304900e-01 -4.9610034691753668312230729e-01 -2.6540540388760652801281026e-01 -4.9610034691753668312230729e-01 -2.6540540388760652801281026e-01 5.9233759663459645272709508e-02 1.3684365983820992451747145e-01
1.6580000000000001136868377e+02 -1.5227948150933612314616994e-01 1.1269039930108001867914425e-01 -5.1603373779988914726857274e-01 -2.2840993562894035262544890e-01 -5.1603373779988914726857274e-01 -2.2840993562894035262544890e-01 9.3106622065743022131911744e-02 1.4947224847857337737266903e-01
1.6594999999999998863131623e+02 -1.4463842879361468729548790e-01 1.1985102016308879502304308e-01 -5.3335963315445167332029541e-01 -1.9043769721319675491955081e-01 -5.3335963315445167332029541e-01 -1.9043769721319675491955081e-01 1.2923833773736570496026843e-01 1.5573075942318168052302951e-01
1.6609999999999999431565811e+02 -1.3573704104503797607250704e-01 1.2539300283419380077631899e-01 -5.5055770798129044507618346e-01 -1.4997275797918402373554159e-01 -5.5055770798129044507618346e-01 -1.4997275797918402373554159e-01 1.6306934417342369703085581e-01 1.6024889966303335064878866e-01
1.6625000000000000000000000e+02 -1.2766120604391129056409682e-01 1.3196250270405091020720079e-01 -5.6218727933360579385180245e-01 -1.0344929172214289980757940e-01 -5.6218727933360579385180245e-01 -1.0344929172214289980757940e-01 1.9409645950054882357349584e-01 1.5851450515834997201380929e-01
1.6640000000000000568434189e+02 -1.1999649305014509215183693e-01 1.3340633473010321541352141e-01 -5.7293309347173493328853056e-01 -5.7834023247350589691517797e-02 -5.7293309347173493328853056e-01 -5.7834023247350589691517797e-02 2.2741258309530659742492276e-01 1.5635577011766083055377408e-01
1.6655000000000001136868377e+02 -1.1296658621314162318505225e-01 1.3445013712384387694065424e-01 -5.7824572540139740350895181e-01 -1.5384208209055026672640309e-02 -5.7824572540139740350895181e-01 -1.5384208209055026672640309e-02 2.5153746542661087337577897e-01 1.4433687939968553592962053e-01
1.6669999999999998863131623e+02 -1.0631613606109391323428781e-01 1.3615407571220516924626054e-01 -5.7251983781162940623232771e-01 4.0069472979550317670582871e-02 -5.7251983781162940623232771e-01 4.0069472979550317670582871e-02 2.7765163683599319854877763e-01 1.3934822370180549588880581e-01
1.6684999999999999431565811e+02 -1.0537758016731781085528752e-01 1.3747553076437432628686963e-01 -5.6825265102298472275066388e-01 8.4110893264413677528068547e-02 -5.6825265102298472275066388e-01 8.4110893264413677528068547e-02 3.0095630192157618587600609e-01 1.2000692944026458697237558e-01
1.6700000000000000000000000e+02 -1.0395998309849367735591130e-01 1.3609072571350094849051970e-01 -5.5601969632828629475085336e-01 1.2775255059579712635375870e-01 -5.5601969632828629475085336e-01 1.2775255059579712635375870e-01 3.1575762529003864598209361e-01 1.0860714505037712129809080e-01
1.6715000000000000568434189e+02 -1.0090052888726229463056683e-01 1.4107740225960502256086215e-01 -5.3732671265753018108313199e-01 1.6639266666241325776098847e-01 -5.3732671265753018108313199e-01 1.6639266666241325776098847e-01 3.2732885494486108068912245e-01 8.5696479858360236070424776e-02
1.6730000000000001136868377e+02 -9.2950346966831562389721455e-02 1.4692548761323470651873890e-01 -5.2787942600089099443039231e-01 2.1915358501066853347261087e-01 -5.2787942600089099443039231e-01 2.1915358501066853347261087e-01 3.1044045787525070823065221e-01 6.4511398612767653637511955e-02
1.6744999999999998863131623e+02 -9.6899833757205497408726558e-02 1.5120156160546080470474806e-01 -5.1129369542848590590722324e-01 2.5762682132518532895915087e-01 -5.1129369542848590590722324e-01 2.5762682132518532895915087e-01 3.1319325514530554910308524e-01 5.5215039529127811490649691e-02
1.6759999999999999431565811e+02 -9.4078332805694109275407300e-02 1.4717076919049001948458510e-01 -4.8136204223628709097937417e-01 2.8760667287484220633331233e-01 -4.8136204223628709097937417e-01 2.8760667287484220633331233e-01 2.9556995241599520740649609e-01 4.4338246254338346818979488e-02
1.6775000000000000000000000e+02 -8.9061734992150032308444452e-02 1.6283448196751526548808897e-01 -4.7002965049149786347371105e-01 3.3727471018975796468453154e-01 -4.7002965049149786347371105e-01 3.3727471018975796468453154e-01 2.8856169232457029583116537e-01 2.3476750489346772526877416e-02
1.6790000000000000568434189e+02 -8.1255155922545813096391498e-02 1.6580091396155136052037449e-01 -4.3401167271240281841926389e-01 3.7459617908322728752068542e-01 -4.3401167271240281841926389e-01 3.7459617908322728752068542e-01 2.6923600244584333651687302e-01 5.2872665091592734379344343e-03
1.6805000000000001136868377e+02 -8.1734213209768216690243037e-02 1.7675697725799000004087702e-01 -3.8136448799699423917175523e-01 3.9857759383035695766039908e-01 -3.8136448799699423917175523e-01 3.9857759383035695766039908e-01 2.8369579159319402439365376e-01 5.0282963912917470750141291e-03
1.6819999999999998863131623e+02 -6.9106971172523096180739799e-02 1.7470857716315210672597402e-01 -3.8393840563338837990059460e-01 4.2624718968566527310670722e-01 -3.8393840563338837990059460e-01 4.2624718968566527310670722e-01 2.2315544976602008642174724e-01 -3.8462874948948733155873470e-02
1.6834999999999999431565811e+02 -6.6130472966333314621678596e-02 1.8896325688482862314998556e-01 -3.3920794088633204887983652e-01 4.2931529944071167292918290e-01 -3.3920794088633204887983652e-01 4.2931529944071167292918290e-01 2.2747057040512386194563987e-01 -4.9639304776518858308698157e-02
1.6850000000000000000000000e+02 -6.6313659871257160660640295e-02 1.9232932302826591386413213e-01 -2.9605647398219347987691208e-01 4.0135035761374265872447609e-01 -2.9605647398219347987691208e-01 4.0135035761374265872447609e-01 2.4686531138238965166209482e-01 -7.9897420989147441283684259e-02
1.6865000000000000568434189e+02 -3.9319582437306217770345285e-02 1.8751199854902167452053163e-01 -3.0953246942648959816324350e-01 4.7624764342811476414141225e-01 -3.0953246942648959816324350e-01 4.7624764342811476414141225e-01 1.6049249008590346643465807e-01 -8.6794928543722019154138536e-02
1.6880000000000001136868377e+02 -2.7015553508131201487785233e-02 2.1241567747443523828110301e-01 -2.4412565267901462084942921e-01 5.4876383738981882043361793e-01 -2.4412565267901462084942921e-01 5.4876383738981882043361793e-01 1.6676578312161896566756525e-01 -9.8631376999960607143691504e-02
1.6894999999999998863131623e+02 -4.6856110483158863733166299e-01 3.3443292987256179049637694e-01 -6.1135372649062125205432494e-01 7.1087794369478507494619635e-01 -6.1135372649062125205432494e-01 7.1087794369478507494619635e-01 -6.0917243028834755502742837e-01 1.4884065292955062087543183e+00
1.6909999999999999431565811e+02 4.1680318334149479841954644e-02 2.2751950834150250213561151e-01 -1.9872965593844757470343154e-01 4.8223545627729907936398490e-01 -1.9872965593844757470343154e-01 4.8223545627729907936398490e-01 2.8667188017596118010388295e-01 -1.7884293957492061744041223e-01
1.6925000000000000000000000e+02 6.9637098736918534580553342e-03 2.2621018656325661555506201e-01 -1.3253222163304984038134648e-01 4.9399869198985807416946159e-01 -1.3253222163304984038134648e-01 4.9399869198985807416946159e-01 1.4470832801138874823543290e-01 -1.1908511451918681045558657e-01
1.6940000000000000568434189e+02 9.3405418474705459441764788e-04 2.0743553930590316602966539e-01 -1.3815839764649576193455971e-01 6.4365657035550505327137216e-01 -1.3815839764649576193455971e-01 6.4365657035550505327137216e-01 2.3833397752271608810437087e-02 -1.0531737522678362439787492e-01
1.6955000000000001136868377e+02 1.2140441119134591160810821e-02 2.1999302609023160814949449e-01 2.8567269675241872134430210e-02 5.3670042571441456402681069e-01 2.8567269675241872134430210e-02 5.3670042571441456402681069e-01 2.5960940841484682339856960e-02 -1.8262055800287585460850437e-01
1.6969999999999998863131623e+02 3.1068237983997458451224105e-02 2.2025132323651488985838398e-01 6.8189498864301686942290814e-02 5.5843241026287815387263436e-01 6.8189498864301686942290814e-02 5.5843241026287815387263436e-01 1.6071184616422387603229538e-02 -1.1101948462675297057966617e-01
1.6984999999999999431565811e+02 -2.6360668338633874707710447e-03 2.1853113132515616934270497e-01 1.2842557714369495780459829e-01 5.1283880876505827384193026e-01 1.2842557714369495780459829e-01 5.1283880876505827384193026e-01 1.2629550050481814713054796e-02 -1.1039287878671302789435060e-01
1.7000000000000000000000000e+02 3.2083655799559407384435872e-02 6.1961123159970488138981182e-02 -5.6583392731283634058403464e-02 5.7689321549715910641964456e-01 -5.6583392731283634058403464e-02 5.7689321549715910641964456e-01 -3.6949685598066672742589844e-01 -3.2237753947407454813145478e-01
